<?xml version="1.0"?>
<xrdMeasurements xmlns="http://www.xrdml.com/XRDMeasurement/2.2" xmlns:xsi="http://www.w3.org/2001/XMLSchema-instance" xsi:schemaLocation="http://www.xrdml.com/XRDMeasurement/2.2 http://www.xrdml.com/XRDMeasurement/2.2/XRDMeasurement.xsd" status="Completed" recordIdentifier="{EFDD35D5-3050-4BA6-9B51-4906E12E8475}">
	<comment>
		<entry>Configuration=Parallel Beam for 4inch holder, Owner=MRD, Creation date=2012/03/27 14:08:09</entry>
		<entry>Goniometer=PW3050/65 (Theta/2Theta); Minimum step size 2Theta:0.0001; Minimum step size Omega:0.0001</entry>
		<entry>Sample stage=MRD Cradle; Minimum step size Phi:0.01; Minimum step size Chi:0.01; Minimum step size X:0.01; Minimum step size Y:0.01; Minimum step size Z:0.001</entry>
		<entry>Diffractometer system=XPERT-PRO</entry>
		<entry>Measurement program=C:\PANalytical\Data Collector\Programs\Reflectivity_Batch.xrdmp, Created identifier={007932df-34e3-4485-9cdc-ce5737d00380}, Created by=User-1, Id=User-1, Creation date=2012/04/06 17:50:18, Modified identifier={01A055E3-DCDA-4635-B331-E09B5544CB74}, Modified by=MRD, Id=WL:DESKTOP-LQ4LR9T:MRD, Modification date=2026/06/06 6:36:24</entry>
		<entry>Fine Calibration Offset for 2Theta = 0.0002 deg</entry>
		<entry>Batch program=C:\PANalytical\Data Collector\Programs\Reflectivity_Batch_4inch.xrdmp, Created identifier={960d4441-9b31-4165-bf03-2a9b383547c1}, Created by=User-1, Id=User-1, Creation date=2012/04/06 17:52:19, Modified identifier={1DDEFD67-F033-44A2-A541-9D9449C44B64}, Modified by=MRD, Id=WL:DESKTOP-LQ4LR9T:MRD, Modification date=2026/01/14 13:23:43</entry>
	</comment>
	<sample type="To be analyzed">
		<id></id>
		<name></name>
		<preparedBy></preparedBy>
	</sample>
	<xrdMeasurement measurementType="Scan" status="Completed" sampleMode="Reflection">
		<comment>
			<entry>PHD Lower Level = 5.63 (keV), PHD Upper Level = 12.88 (keV)</entry>
		</comment>
		<usedWavelength intended="K-Alpha 1">
			<kAlpha1 unit="Angstrom">1.5405980</kAlpha1>
			<kAlpha2 unit="Angstrom">1.5444260</kAlpha2>
			<kBeta unit="Angstrom">1.3922500</kBeta>
			<ratioKAlpha2KAlpha1>0.0000</ratioKAlpha2KAlpha1>
		</usedWavelength>
		<incidentBeamPath>
			<radius unit="mm">320.00</radius>
			<xRayTube id="1010048" name="Empyrean Cu LFF HR (9430 033 7310x) DK401973">
				<tension unit="kV">45.0</tension>
				<current unit="mA">40.0</current>
				<anodeMaterial>Cu</anodeMaterial>
				<focus type="Line">
					<length unit="mm">12.0</length>
					<width unit="mm">0.4</width>
					<takeOffAngle unit="deg">4.1</takeOffAngle>
				</focus>
			</xRayTube>
			<xRayMirror id="27080001" name="Inc. Beam Cu W/Si (hybrid MPD)" hybrid="true">
				<crystal type="Graded" shape="Parabolic">W/Si</crystal>
				<acceptanceAngle unit="deg">0.800</acceptanceAngle>
				<length unit="mm">55.3</length>
			</xRayMirror>
			<monochromator id="23090002" name="Hybrid monochr. 2xGe220 Cu asym." hybrid="true">
				<crystal type="Asymmetric" shape="Flat">Ge</crystal>
				<numberOfReflections>2</numberOfReflections>
				<hkl>
					<h>2</h>
					<k>2</k>
					<l>0</l>
				</hkl>
			</monochromator>
			<beamAttenuator id="26010001" name="Progr. beam attenuator Ni 0.125 mm" xsi:type="intensitySwitchedBeamAttenuatorType">
				<factor>73.00</factor>
				<material>Ni</material>
				<activateLevel unit="counts per second">500000</activateLevel>
				<deactivateLevel unit="counts per second">400000</deactivateLevel>
			</beamAttenuator>
		</incidentBeamPath>
		<sampleOffset>
			<position axis="2Theta" unit="deg">0.0000</position>
			<position axis="Omega" unit="deg">-0.0630</position>
		</sampleOffset>
		<diffractedBeamPath>
			<radius unit="mm">320.00</radius>
			<parallelPlateCollimator id="25010003" name="Parallel plate collimator 0.09°">
				<opening unit="deg">0.09</opening>
			</parallelPlateCollimator>
			<detector id="7010011" name="Proportional detector Xe" xsi:type="pointDetectorType">
				<phd unit="%">
					<lowerLevel>35.0</lowerLevel>
					<upperLevel>80.0</upperLevel>
				</phd>
			</detector>
		</diffractedBeamPath>
		<scan appendNumber="0" mode="Continuous" scanAxis="Omega-2Theta" status="Completed">
			<header>
				<startTimeStamp>2026-06-06T06:54:20+09:00</startTimeStamp>
				<endTimeStamp>2026-06-06T08:37:13+09:00</endTimeStamp>
				<author>
					<name>MRD</name>
				</author>
				<source>
					<applicationSoftware version="7.3">Data Collector</applicationSoftware>
					<instrumentControlSoftware version="2.2F 20161117">XPERT-PRO</instrumentControlSoftware>
					<instrumentID>0000000000000000</instrumentID>
				</source>
			</header>
			<dataPoints>
				<positions axis="2Theta" unit="deg">
					<startPosition>-0.1980</startPosition>
					<endPosition>11.9980</endPosition>
				</positions>
				<positions axis="Omega" unit="deg">
					<startPosition>-0.0990</startPosition>
					<endPosition>5.9990</endPosition>
				</positions>
				<positions axis="Phi" unit="deg">
					<commonPosition>0.00</commonPosition>
				</positions>
				<positions axis="Chi" unit="deg">
					<commonPosition>-0.48</commonPosition>
				</positions>
				<positions axis="X" unit="mm">
					<commonPosition>0.00</commonPosition>
				</positions>
				<positions axis="Y" unit="mm">
					<commonPosition>0.00</commonPosition>
				</positions>
				<positions axis="Z" unit="mm">
					<commonPosition>9.302</commonPosition>
				</positions>
				<beamAttenuationFactors>1.00 1.00 1.00 1.00 1.00 1.00 1.00 1.00 1.00 1.00 1.00 1.00 1.00 1.00 1.00 1.00 1.00 1.00 1.00 1.00 1.00 1.00 1.00 1.00 1.00 1.00 1.00 1.00 1.00 1.00 1.00 1.00 1.00 1.00 1.00 1.00 1.00 1.00 1.00 1.00 1.00 1.00 1.00 1.00 1.00 1.00 1.00 1.00 1.00 73.00 73.00 73.00 73.00 73.00 73.00 73.00 1.00 1.00 1.00 1.00 1.00 1.00 1.00 1.00 1.00 1.00 1.00 1.00 1.00 1.00 1.00 1.00 1.00 1.00 1.00 1.00 1.00 1.00 1.00 1.00 1.00 1.00 73.00 73.00 73.00 73.00 73.00 73.00 73.00 73.00 73.00 73.00 73.00 73.00 73.00 73.00 73.00 73.00 73.00 73.00 73.00 73.00 73.00 73.00 73.00 73.00 73.00 73.00 73.00 73.00 73.00 73.00 73.00 73.00 73.00 73.00 73.00 73.00 73.00 73.00 73.00 73.00 73.00 73.00 73.00 73.00 73.00 73.00 73.00 73.00 73.00 73.00 73.00 73.00 73.00 73.00 73.00 73.00 73.00 73.00 73.00 73.00 73.00 73.00 73.00 73.00 73.00 73.00 73.00 73.00 73.00 73.00 73.00 73.00 73.00 73.00 73.00 73.00 73.00 73.00 73.00 73.00 73.00 73.00 73.00 73.00 73.00 73.00 73.00 73.00 73.00 73.00 73.00 73.00 73.00 73.00 73.00 73.00 73.00 73.00 73.00 73.00 73.00 73.00 73.00 73.00 73.00 73.00 73.00 73.00 73.00 73.00 73.00 73.00 73.00 73.00 73.00 73.00 1.00 1.00 1.00 1.00 1.00 1.00 1.00 1.00 1.00 1.00 1.00 1.00 1.00 1.00 1.00 1.00 1.00 1.00 1.00 1.00 1.00 1.00 1.00 1.00 1.00 1.00 1.00 1.00 1.00 1.00 1.00 1.00 1.00 1.00 1.00 1.00 1.00 1.00 1.00 1.00 1.00 1.00 1.00 1.00 1.00 1.00 1.00 1.00 1.00 1.00 1.00 1.00 1.00 1.00 1.00 1.00 1.00 1.00 1.00 1.00 1.00 1.00 1.00 1.00 1.00 1.00 1.00 1.00 1.00 1.00 1.00 1.00 1.00 1.00 1.00 1.00 1.00 1.00 1.00 1.00 1.00 1.00 1.00 1.00 1.00 1.00 1.00 1.00 1.00 1.00 1.00 1.00 1.00 1.00 1.00 1.00 1.00 1.00 1.00 1.00 1.00 1.00 1.00 1.00 1.00 1.00 1.00 1.00 1.00 1.00 1.00 1.00 1.00 1.00 1.00 1.00 1.00 1.00 1.00 1.00 1.00 1.00 1.00 1.00 1.00 1.00 1.00 1.00 1.00 1.00 1.00 1.00 1.00 1.00 1.00 1.00 1.00 1.00 1.00 1.00 1.00 1.00 1.00 1.00 1.00 1.00 1.00 1.00 1.00 1.00 1.00 1.00 1.00 1.00 1.00 1.00 1.00 1.00 1.00 1.00 1.00 1.00 1.00 1.00 1.00 1.00 1.00 1.00 1.00 1.00 1.00 1.00 1.00 1.00 1.00 1.00 1.00 1.00 1.00 1.00 1.00 1.00 1.00 1.00 1.00 1.00 1.00 1.00 1.00 1.00 1.00 1.00 1.00 1.00 1.00 1.00 1.00 1.00 1.00 1.00 1.00 1.00 1.00 1.00 1.00 1.00 1.00 1.00 1.00 1.00 1.00 1.00 1.00 1.00 1.00 1.00 1.00 1.00 1.00 1.00 1.00 1.00 1.00 1.00 1.00 1.00 1.00 1.00 1.00 1.00 1.00 1.00 1.00 1.00 1.00 1.00 1.00 1.00 1.00 1.00 1.00 1.00 1.00 1.00 1.00 1.00 1.00 1.00 1.00 1.00 1.00 1.00 1.00 1.00 1.00 1.00 1.00 1.00 1.00 1.00 1.00 1.00 1.00 1.00 1.00 1.00 1.00 1.00 1.00 1.00 1.00 1.00 1.00 1.00 1.00 1.00 1.00 1.00 1.00 1.00 1.00 1.00 1.00 1.00 1.00 1.00 1.00 1.00 1.00 1.00 1.00 1.00 1.00 1.00 1.00 1.00 1.00 1.00 1.00 1.00 1.00 1.00 1.00 1.00 1.00 1.00 1.00 1.00 1.00 1.00 1.00 1.00 1.00 1.00 1.00 1.00 1.00 1.00 1.00 1.00 1.00 1.00 1.00 1.00 1.00 1.00 1.00 1.00 1.00 1.00 1.00 1.00 1.00 1.00 1.00 1.00 1.00 1.00 1.00 1.00 1.00 1.00 1.00 1.00 1.00 1.00 1.00 1.00 1.00 1.00 1.00 1.00 1.00 1.00 1.00 1.00 1.00 1.00 1.00 1.00 1.00 1.00 1.00 1.00 1.00 1.00 1.00 1.00 1.00 1.00 1.00 1.00 1.00 1.00 1.00 1.00 1.00 1.00 1.00 1.00 1.00 1.00 1.00 1.00 1.00 1.00 1.00 1.00 1.00 1.00 1.00 1.00 1.00 1.00 1.00 1.00 1.00 1.00 1.00 1.00 1.00 1.00 1.00 1.00 1.00 1.00 1.00 1.00 1.00 1.00 1.00 1.00 1.00 1.00 1.00 1.00 1.00 1.00 1.00 1.00 1.00 1.00 1.00 1.00 1.00 1.00 1.00 1.00 1.00 1.00 1.00 1.00 1.00 1.00 1.00 1.00 1.00 1.00 1.00 1.00 1.00 1.00 1.00 1.00 1.00 1.00 1.00 1.00 1.00 1.00 1.00 1.00 1.00 1.00 1.00 1.00 1.00 1.00 1.00 1.00 1.00 1.00 1.00 1.00 1.00 1.00 1.00 1.00 1.00 1.00 1.00 1.00 1.00 1.00 1.00 1.00 1.00 1.00 1.00 1.00 1.00 1.00 1.00 1.00 1.00 1.00 1.00 1.00 1.00 1.00 1.00 1.00 1.00 1.00 73.00 73.00 73.00 73.00 73.00 73.00 73.00 73.00 73.00 73.00 73.00 73.00 73.00 73.00 73.00 73.00 1.00 1.00 1.00 1.00 1.00 1.00 1.00 1.00 1.00 1.00 1.00 1.00 1.00 1.00 1.00 1.00 1.00 1.00 1.00 1.00 1.00 1.00 1.00 1.00 1.00 1.00 1.00 1.00 1.00 1.00 1.00 1.00 1.00 1.00 1.00 1.00 1.00 1.00 1.00 1.00 1.00 1.00 1.00 1.00 1.00 1.00 1.00 1.00 1.00 1.00 1.00 1.00 1.00 1.00 1.00 1.00 1.00 1.00 1.00 1.00 1.00 1.00 1.00 1.00 1.00 1.00 1.00 1.00 1.00 1.00 1.00 1.00 1.00 1.00 1.00 1.00 1.00 1.00 1.00 1.00 1.00 1.00 1.00 1.00 1.00 1.00 1.00 1.00 1.00 1.00 1.00 1.00 1.00 1.00 1.00 1.00 1.00 1.00 1.00 1.00 1.00 1.00 1.00 1.00 1.00 1.00 1.00 1.00 1.00 1.00 1.00 1.00 1.00 1.00 1.00 1.00 1.00 1.00 1.00 1.00 1.00 1.00 1.00 1.00 1.00 1.00 1.00 1.00 1.00 1.00 1.00 1.00 1.00 1.00 1.00 1.00 1.00 1.00 1.00 1.00 1.00 1.00 1.00 1.00 1.00 1.00 1.00 1.00 1.00 1.00 1.00 1.00 1.00 1.00 1.00 1.00 1.00 1.00 1.00 1.00 1.00 1.00 1.00 1.00 1.00 1.00 1.00 1.00 1.00 1.00 1.00 1.00 1.00 1.00 1.00 1.00 1.00 1.00 1.00 1.00 1.00 1.00 1.00 1.00 1.00 1.00 1.00 1.00 1.00 1.00 1.00 1.00 1.00 1.00 1.00 1.00 1.00 1.00 1.00 1.00 1.00 1.00 1.00 1.00 1.00 1.00 1.00 1.00 1.00 1.00 1.00 1.00 1.00 1.00 1.00 1.00 1.00 1.00 1.00 1.00 1.00 1.00 1.00 1.00 1.00 1.00 1.00 1.00 1.00 1.00 1.00 1.00 1.00 1.00 1.00 1.00 1.00 1.00 1.00 1.00 1.00 1.00 1.00 1.00 1.00 1.00 1.00 1.00 1.00 1.00 1.00 1.00 1.00 1.00 1.00 1.00 1.00 1.00 1.00 1.00 1.00 1.00 1.00 1.00 1.00 1.00 1.00 1.00 1.00 1.00 1.00 1.00 1.00 1.00 1.00 1.00 1.00 1.00 1.00 1.00 1.00 1.00 1.00 1.00 1.00 1.00 1.00 1.00 1.00 1.00 1.00 1.00 1.00 1.00 1.00 1.00 1.00 1.00 1.00 1.00 1.00 1.00 1.00 1.00 1.00 1.00 1.00 1.00 1.00 1.00 1.00 1.00 1.00 1.00 1.00 1.00 1.00 1.00 1.00 1.00 1.00 1.00 1.00 1.00 1.00 1.00 1.00 1.00 1.00 1.00 1.00 1.00 1.00 1.00 1.00 1.00 1.00 1.00 1.00 1.00 1.00 1.00 1.00 1.00 1.00 1.00 1.00 1.00 1.00 1.00 1.00 1.00 1.00 1.00 1.00 1.00 1.00 1.00 1.00 1.00 1.00 1.00 1.00 1.00 1.00 1.00 1.00 1.00 1.00 1.00 1.00 1.00 1.00 1.00 1.00 1.00 1.00 1.00 1.00 1.00 1.00 1.00 1.00 1.00 1.00 1.00 1.00 1.00 1.00 1.00 1.00 1.00 1.00 1.00 1.00 1.00 1.00 1.00 1.00 1.00 1.00 1.00 1.00 1.00 1.00 1.00 1.00 1.00 1.00 1.00 1.00 1.00 1.00 1.00 1.00 1.00 1.00 1.00 1.00 1.00 1.00 1.00 1.00 1.00 1.00 1.00 1.00 1.00 1.00 1.00 1.00 1.00 1.00 1.00 1.00 1.00 1.00 1.00 1.00 1.00 1.00 1.00 1.00 1.00 1.00 1.00 1.00 1.00 1.00 1.00 1.00 1.00 1.00 1.00 1.00 1.00 1.00 1.00 1.00 1.00 1.00 1.00 1.00 1.00 1.00 1.00 1.00 1.00 1.00 1.00 1.00 1.00 1.00 1.00 1.00 1.00 1.00 1.00 1.00 1.00 1.00 1.00 1.00 1.00 1.00 1.00 1.00 1.00 1.00 1.00 1.00 1.00 1.00 1.00 1.00 1.00 1.00 1.00 1.00 1.00 1.00 1.00 1.00 1.00 1.00 1.00 1.00 1.00 1.00 1.00 1.00 1.00 1.00 1.00 1.00 1.00 1.00 1.00 1.00 1.00 1.00 1.00 1.00 1.00 1.00 1.00 1.00 1.00 1.00 1.00 1.00 1.00 1.00 1.00 1.00 1.00 1.00 1.00 1.00 1.00 1.00 1.00 1.00 1.00 1.00 1.00 1.00 1.00 1.00 1.00 1.00 1.00 1.00 1.00 1.00 1.00 1.00 1.00 1.00 1.00 1.00 1.00 1.00 1.00 1.00 1.00 1.00 1.00 1.00 1.00 1.00 1.00 1.00 1.00 1.00 1.00 1.00 1.00 1.00 1.00 1.00 1.00 1.00 1.00 1.00 1.00 1.00 1.00 1.00 1.00 1.00 1.00 1.00 1.00 1.00 1.00 1.00 1.00 1.00 1.00 1.00 1.00 1.00 1.00 1.00 1.00 1.00 1.00 1.00 1.00 1.00 1.00 1.00 1.00 1.00 1.00 1.00 1.00 1.00 1.00 1.00 1.00 1.00 1.00 1.00 1.00 1.00 1.00 1.00 1.00 1.00 1.00 1.00 1.00 1.00 1.00 1.00 1.00 1.00 1.00 1.00 1.00 1.00 1.00 1.00 1.00 1.00 1.00 1.00 1.00 1.00 1.00 1.00 1.00 1.00 1.00 1.00 1.00 1.00 1.00 1.00 1.00 1.00 1.00 1.00 1.00 1.00 1.00 1.00 1.00 1.00 1.00 1.00 1.00 1.00 1.00 1.00 1.00 1.00 1.00 1.00 1.00 1.00 1.00 1.00 1.00 1.00 1.00 1.00 1.00 1.00 1.00 1.00 1.00 1.00 1.00 1.00 1.00 1.00 1.00 1.00 1.00 1.00 1.00 1.00 1.00 1.00 1.00 1.00 1.00 1.00 1.00 1.00 1.00 1.00 1.00 1.00 1.00 1.00 1.00 1.00 1.00 1.00 1.00 1.00 1.00 1.00 1.00 1.00 1.00 1.00 1.00 1.00 1.00 1.00 1.00 1.00 1.00 1.00 1.00 1.00 1.00 1.00 1.00 1.00 1.00 1.00 1.00 1.00 1.00 1.00 1.00 1.00 1.00 1.00 1.00 1.00 1.00 1.00 1.00 1.00 1.00 1.00 1.00 1.00 1.00 1.00 1.00 1.00 1.00 1.00 1.00 1.00 1.00 1.00 1.00 1.00 1.00 1.00 1.00 1.00 1.00 1.00 1.00 1.00 1.00 1.00 1.00 1.00 1.00 1.00 1.00 1.00 1.00 1.00 1.00 1.00 1.00 1.00 1.00 1.00 1.00 1.00 1.00 1.00 1.00 1.00 1.00 1.00 1.00 1.00 1.00 1.00 1.00 1.00 1.00 1.00 1.00 1.00 1.00 1.00 1.00 1.00 1.00 1.00 1.00 1.00 1.00 1.00 1.00 1.00 1.00 1.00 1.00 1.00 1.00 1.00 1.00 1.00 1.00 1.00 1.00 1.00 1.00 1.00 1.00 1.00 1.00 1.00 1.00 1.00 1.00 1.00 1.00 1.00 1.00 1.00 1.00 1.00 1.00 1.00 1.00 1.00 1.00 1.00 1.00 1.00 1.00 1.00 1.00 1.00 1.00 1.00 1.00 1.00 1.00 1.00 1.00 1.00 1.00 1.00 1.00 1.00 1.00 1.00 1.00 1.00 1.00 1.00 1.00 1.00 1.00 1.00 1.00 1.00 1.00 1.00 1.00 1.00 1.00 1.00 1.00 1.00 1.00 1.00 1.00 1.00 1.00 1.00 1.00 1.00 1.00 1.00 1.00 1.00 1.00 1.00 1.00 1.00 1.00 1.00 1.00 1.00 1.00 1.00 1.00 1.00 1.00 1.00 1.00 1.00 1.00 1.00 1.00 1.00 1.00 1.00 1.00 1.00 1.00 1.00 1.00 1.00 1.00 1.00 1.00 1.00 1.00 1.00 1.00 1.00 1.00 1.00 1.00 1.00 1.00 1.00 1.00 1.00 1.00 1.00 1.00 1.00 1.00 1.00 1.00 1.00 1.00 1.00 1.00 1.00 1.00 1.00 1.00 1.00 1.00 1.00 1.00 1.00 1.00 1.00 1.00 1.00 1.00 1.00 1.00 1.00 1.00 1.00 1.00 1.00 1.00 1.00 1.00 1.00 1.00 1.00 1.00 1.00 1.00 1.00 1.00 1.00 1.00 1.00 1.00 1.00 1.00 1.00 1.00 1.00 1.00 1.00 1.00 1.00 1.00 1.00 1.00 1.00 1.00 1.00 1.00 1.00 1.00 1.00 1.00 1.00 1.00 1.00 1.00 1.00 1.00 1.00 1.00 1.00 1.00 1.00 1.00 1.00 1.00 1.00 1.00 1.00 1.00 1.00 1.00 1.00 1.00 1.00 1.00 1.00 1.00 1.00 1.00 1.00 1.00 1.00 1.00 1.00 1.00 1.00 1.00 1.00 1.00 1.00 1.00 1.00 1.00 1.00 1.00 1.00 1.00 1.00 1.00 1.00 1.00 1.00 1.00 1.00 1.00 1.00 1.00 1.00 1.00 1.00 1.00 1.00 1.00 1.00 1.00 1.00 1.00 1.00 1.00 1.00 1.00 1.00 1.00 1.00 1.00 1.00 1.00 1.00 1.00 1.00 1.00 1.00 1.00 1.00 1.00 1.00 1.00 1.00 1.00 1.00 1.00 1.00 1.00 1.00 1.00 1.00 1.00 1.00 1.00 1.00 1.00 1.00 1.00 1.00 1.00 1.00 1.00 1.00 1.00 1.00 1.00 1.00 1.00 1.00 1.00 1.00 1.00 1.00 1.00 1.00 1.00 1.00 1.00 1.00 1.00 1.00 1.00 1.00 1.00 1.00 1.00 1.00 1.00 1.00 1.00 1.00 1.00 1.00 1.00 1.00 1.00 1.00 1.00 1.00 1.00 1.00 1.00 1.00 1.00 1.00 1.00 1.00 1.00 1.00 1.00 1.00 1.00 1.00 1.00 1.00 1.00 1.00 1.00 1.00 1.00 1.00 1.00 1.00 1.00 1.00 1.00 1.00 1.00 1.00 1.00 1.00 1.00 1.00 1.00 1.00 1.00 1.00 1.00 1.00 1.00 1.00 1.00 1.00 1.00 1.00 1.00 1.00 1.00 1.00 1.00 1.00 1.00 1.00 1.00 1.00 1.00 1.00 1.00 1.00 1.00 1.00 1.00 1.00 1.00 1.00 1.00 1.00 1.00 1.00 1.00 1.00 1.00 1.00 1.00 1.00 1.00 1.00 1.00 1.00 1.00 1.00 1.00 1.00 1.00 1.00 1.00 1.00 1.00 1.00 1.00 1.00 1.00 1.00 1.00 1.00 1.00 1.00 1.00 1.00 1.00 1.00 1.00 1.00 1.00 1.00 1.00 1.00 1.00 1.00 1.00 1.00 1.00 1.00 1.00 1.00 1.00 1.00 1.00 1.00 1.00 1.00 1.00 1.00 1.00 1.00 1.00 1.00 1.00 1.00 1.00 1.00 1.00 1.00 1.00 1.00 1.00 1.00 1.00 1.00 1.00 1.00 1.00 1.00 1.00 1.00 1.00 1.00 1.00 1.00 1.00 1.00 1.00 1.00 1.00 1.00 1.00 1.00 1.00 1.00 1.00 1.00 1.00 1.00 1.00 1.00 1.00 1.00 1.00 1.00 1.00 1.00 1.00 1.00 1.00 1.00 1.00 1.00 1.00 1.00 1.00 1.00 1.00 1.00 1.00 1.00 1.00 1.00 1.00 1.00 1.00 1.00 1.00 1.00 1.00 1.00 1.00 1.00 1.00 1.00 1.00 1.00 1.00 1.00 1.00 1.00 1.00 1.00 1.00 1.00 1.00 1.00 1.00 1.00 1.00 1.00 1.00 1.00 1.00 1.00 1.00 1.00 1.00 1.00 1.00 1.00 1.00 1.00 1.00 1.00 1.00 1.00 1.00 1.00 1.00 1.00 1.00 1.00 1.00 1.00 1.00 1.00 1.00 1.00 1.00 1.00 1.00 1.00 1.00 1.00 1.00 1.00 1.00 1.00 1.00 1.00 1.00 1.00 1.00 1.00 1.00 1.00 1.00 1.00 1.00 1.00 1.00 1.00 1.00 1.00 1.00 1.00 1.00 1.00 1.00 1.00 1.00 1.00 1.00 1.00 1.00 1.00 1.00 1.00 1.00 1.00 1.00 1.00 1.00 1.00 1.00 1.00 1.00 1.00 1.00 1.00 1.00 1.00 1.00 1.00 1.00 1.00 1.00 1.00 1.00 1.00 1.00 1.00 1.00 1.00 1.00 1.00 1.00 1.00 1.00 1.00 1.00 1.00 1.00 1.00 1.00 1.00 1.00 1.00 1.00 1.00 1.00 1.00 1.00 1.00 1.00 1.00 1.00 1.00 1.00 1.00 1.00 1.00 1.00 1.00 1.00 1.00 1.00 1.00 1.00 1.00 1.00 1.00 1.00 1.00 1.00 1.00 1.00 1.00 1.00 1.00 1.00 1.00 1.00 1.00 1.00 1.00 1.00 1.00 1.00 1.00 1.00 1.00 1.00 1.00 1.00 1.00 1.00 1.00 1.00 1.00 1.00 1.00 1.00 1.00 1.00 1.00 1.00 1.00 1.00 1.00 1.00 1.00 1.00 1.00 1.00 1.00 1.00 1.00 1.00 1.00 1.00 1.00 1.00 1.00 1.00 1.00 1.00 1.00 1.00 1.00 1.00 1.00 1.00 1.00 1.00 1.00 1.00 1.00 1.00 1.00 1.00 1.00 1.00 1.00 1.00 1.00 1.00 1.00 1.00 1.00 1.00 1.00 1.00 1.00 1.00 1.00 1.00 1.00 1.00 1.00 1.00 1.00 1.00 1.00 1.00 1.00 1.00 1.00 1.00 1.00 1.00 1.00 1.00 1.00 1.00 1.00 1.00 1.00 1.00 1.00 1.00 1.00 1.00 1.00 1.00 1.00 1.00 1.00 1.00 1.00 1.00 1.00 1.00 1.00 1.00 1.00 1.00 1.00 1.00 1.00 1.00 1.00 1.00 1.00 1.00 1.00 1.00 1.00 1.00 1.00 1.00 1.00 1.00 1.00 1.00 1.00 1.00 1.00 1.00 1.00 1.00 1.00 1.00 1.00 1.00 1.00 1.00 1.00 1.00 1.00 1.00 1.00 1.00 1.00 1.00 1.00 1.00 1.00 1.00 1.00 1.00 1.00 1.00 1.00 1.00 1.00 1.00 1.00 1.00 1.00 1.00 1.00 1.00 1.00 1.00 1.00 1.00 1.00 1.00 1.00 1.00 1.00 1.00 1.00 1.00 1.00 1.00 1.00 1.00 1.00 1.00 1.00 1.00 1.00 1.00 1.00 1.00 1.00 1.00 1.00 1.00 1.00 1.00 1.00 1.00 1.00 1.00 1.00 1.00 1.00 1.00 1.00 1.00 1.00 1.00 1.00 1.00 1.00 1.00 1.00 1.00 1.00 1.00 1.00 1.00 1.00 1.00 1.00 1.00 1.00 1.00 1.00 1.00 1.00 1.00 1.00 1.00 1.00 1.00 1.00 1.00 1.00 1.00 1.00 1.00 1.00 1.00 1.00 1.00 1.00 1.00 1.00 1.00 1.00 1.00 1.00 1.00 1.00 1.00 1.00 1.00 1.00 1.00 1.00 1.00 1.00 1.00 1.00 1.00 1.00 1.00 1.00 1.00 1.00 1.00 1.00 1.00 1.00 1.00 1.00 1.00 1.00 1.00 1.00 1.00 1.00 1.00 1.00 1.00 1.00 1.00 1.00 1.00 1.00 1.00 1.00 1.00 1.00 1.00 1.00 1.00 1.00 1.00 1.00 1.00 1.00 1.00 1.00 1.00 1.00 1.00 1.00 1.00 1.00 1.00 1.00 1.00 1.00 1.00 1.00 1.00 1.00 1.00 1.00 1.00 1.00 1.00 1.00 1.00 1.00 1.00 1.00 1.00 1.00 1.00 1.00 1.00 1.00 1.00 1.00 1.00 1.00 1.00 1.00 1.00 1.00 1.00 1.00 1.00 1.00 1.00 1.00 1.00 1.00 1.00 1.00 1.00 1.00 1.00 1.00 1.00 1.00 1.00 1.00 1.00 1.00 1.00 1.00 1.00 1.00 1.00 1.00 1.00 1.00 1.00 1.00 1.00 1.00 1.00 1.00 1.00 1.00 1.00 1.00 1.00 1.00 1.00 1.00 1.00 1.00 1.00 1.00 1.00 1.00 1.00 1.00 1.00 1.00 1.00 1.00 1.00 1.00 1.00 1.00 1.00 1.00 1.00 1.00 1.00 1.00 1.00 1.00 1.00 1.00 1.00 1.00 1.00 1.00 1.00 1.00 1.00 1.00 1.00 1.00 1.00 1.00 1.00 1.00 1.00 1.00 1.00 1.00 1.00 1.00 1.00 1.00 1.00 1.00 1.00 1.00 1.00 1.00 1.00 1.00 1.00 1.00 1.00 1.00 1.00 1.00 1.00 1.00 1.00 1.00 1.00 1.00 1.00 1.00 1.00 1.00 1.00 1.00 1.00 1.00 1.00 1.00 1.00 1.00 1.00 1.00 1.00 1.00 1.00 1.00 1.00 1.00 1.00 1.00 1.00 1.00 1.00 1.00 1.00 1.00 1.00 1.00 1.00 1.00 1.00 1.00 1.00 1.00 1.00 1.00 1.00 1.00 1.00 1.00 1.00 1.00 1.00 1.00 1.00 1.00 1.00 1.00 1.00 1.00 1.00 1.00 1.00 1.00 1.00 1.00 1.00 1.00 1.00 1.00 1.00 1.00 1.00 1.00 1.00 1.00 1.00 1.00 1.00 1.00 1.00 1.00 1.00 1.00 1.00 1.00 1.00 1.00 1.00 1.00 1.00 1.00 1.00 1.00 1.00 1.00 1.00 1.00 1.00 1.00 1.00 1.00 1.00 1.00 1.00 1.00 1.00 1.00 1.00 1.00 1.00 1.00 1.00 1.00 1.00 1.00 1.00 1.00 1.00 1.00 1.00 1.00 1.00 1.00 1.00 1.00 1.00 1.00 1.00 1.00 1.00 1.00 1.00 1.00 1.00 1.00 1.00 1.00 1.00 1.00 1.00 1.00 1.00 1.00 1.00 1.00 1.00 1.00 1.00 1.00 1.00 1.00 1.00 1.00 1.00 1.00 1.00 1.00 1.00 1.00 1.00 1.00 1.00 1.00 1.00 1.00 1.00 1.00 1.00 1.00 1.00 1.00 1.00 1.00 1.00 1.00 1.00 1.00 1.00 1.00 1.00 1.00 1.00 1.00 1.00 1.00 1.00 1.00 1.00 1.00 1.00 1.00 1.00 1.00 1.00 1.00 1.00 1.00 1.00 1.00 1.00 1.00 1.00 1.00 1.00 1.00 1.00 1.00 1.00 1.00 1.00 1.00 1.00 1.00 1.00 1.00 1.00 1.00 1.00 1.00 1.00 1.00 1.00 1.00 1.00 1.00 1.00 1.00 1.00 1.00 1.00 1.00 1.00 1.00 1.00 1.00 1.00 1.00 1.00 1.00 1.00 1.00 1.00 1.00 1.00 1.00 1.00 1.00 1.00 1.00 1.00 1.00 1.00 1.00 1.00 1.00 1.00 1.00 1.00 1.00 1.00 1.00 1.00 1.00 1.00 1.00 1.00 1.00 1.00 1.00 1.00 1.00 1.00 1.00 1.00 1.00 1.00 1.00 1.00 1.00 1.00 1.00 1.00 1.00 1.00 1.00 1.00 1.00 1.00 1.00 1.00 1.00 1.00 1.00 1.00 1.00 1.00 1.00 1.00 1.00 1.00 1.00 1.00 1.00 1.00 1.00 1.00 1.00 1.00 1.00 1.00 1.00 1.00 1.00 1.00 1.00 1.00 1.00 1.00 1.00 1.00 1.00 1.00 1.00 1.00 1.00 1.00 1.00 1.00 1.00 1.00 1.00 1.00 1.00 1.00 1.00 1.00 1.00 1.00 1.00 1.00 1.00 1.00 1.00 1.00 1.00 1.00 1.00 1.00 1.00 1.00 1.00 1.00 1.00 1.00 1.00 1.00 1.00 1.00 1.00 1.00 1.00 1.00 1.00 1.00 1.00 1.00 1.00 1.00</beamAttenuationFactors>
				<commonCountingTime unit="seconds">2.00</commonCountingTime>
				<counts unit="counts">1 3 2 0 4 1 0 1 0 1 3 2 1 1 0 0 3 0 0 1 1 0 2 2 3 1 1 2 0 2 2 0 4 2 2 1 3 5 5 8 9 10 21 94 493 3029 17900 91407 385706 15366 34511 50709 51447 40009 27057 17297 865735 592527 473051 428451 417608 426561 445951 470024 498394 527048 558358 588197 617648 650729 678152 706384 736815 767123 796458 826196 852137 879233 907602 934917 959959 986648 12694 13137 13411 13911 14117 14449 14801 15024 15048 15495 15803 16174 16552 16702 16946 17296 17530 17688 18170 18482 18340 18920 19140 19070 19362 19646 19924 20096 20191 20619 20994 21093 21261 21620 21767 21681 22156 22427 22814 22418 22934 23515 23578 23625 23853 24069 24310 24392 24564 24713 24896 25141 25384 25755 25759 25772 26402 26064 26816 26354 26614 27175 27236 27222 27222 27515 27837 27944 27903 28131 28386 28322 28524 28712 28807 29034 28907 28921 29089 29097 29146 29362 29142 29296 29498 29617 29495 29242 29399 29514 29333 29320 29463 29382 29247 29112 29036 29166 28873 28518 28137 27969 27832 27475 26576 25738 25035 23910 22434 20953 19049 17281 15686 14089 12559 11527 834493 765219 705635 652996 606135 563601 525935 490937 461419 431909 409217 386376 366286 347454 330783 314848 298390 285415 274771 262095 248888 237544 228591 220920 209896 200350 193125 186823 180532 171411 164214 158228 154616 149907 142062 135705 130916 129465 125546 119092 112464 108364 107058 105713 101915 95814 92026 91842 91964 89502 84753 80166 78077 78692 78246 75133 70477 66785 66562 67719 67090 63589 59453 57179 57395 57888 56852 53523 49635 48316 49179 50027 49777 46776 43782 41617 42764 44221 43556 40788 38035 36184 37123 38826 38932 37304 33848 31749 31308 33298 33446 32867 30378 27908 27002 27992 29541 29344 27886 25418 23671 23748 25219 26340 26130 24158 22028 20617 21428 22885 23414 22438 20441 18610 18255 19180 20863 20995 19303 17511 15872 15568 17172 18367 18048 16751 15012 13991 14521 15976 16829 16338 14867 13445 12377 12944 14397 14875 14679 13024 11264 10765 11822 12915 13931 13127 11866 10275 10124 10835 11846 12437 11831 10348 9310 9103 10075 11177 11815 11136 9885 8571 8356 9104 10398 11146 10430 8910 7821 7661 8324 9648 10027 9684 8431 7347 7253 7809 8884 9485 9151 7788 6568 6269 6884 8174 8691 8454 7443 6155 5704 6258 7598 8318 8398 7111 6044 5464 5488 6583 7464 7435 6496 5579 4825 5079 6096 7044 7218 6437 5449 4665 4730 5389 6381 6967 6628 5504 4499 4382 4833 5920 6781 6428 5721 4785 4373 4500 5394 6256 6463 5714 4749 4113 4042 4758 5754 6218 6160 5140 4359 3865 4474 5422 6192 6219 5707 4603 3814 3769 4550 5347 5918 5245 4441 3546 3286 3828 4849 5496 5513 4968 3962 3452 3753 4644 5543 5526 5146 4105 3398 3336 3943 4906 5530 5500 4571 3650 3299 3657 4518 5248 5381 4856 3951 3186 3143 3888 4831 5296 5133 4298 3387 3073 3518 4318 5178 5357 4679 3749 3063 3249 3976 5025 5557 5304 4317 3427 3291 3691 4645 5380 5522 4879 3913 3280 3214 3971 4807 5278 5074 4342 3394 3096 3613 4478 5418 5708 4955 3822 3216 3211 4110 5155 5633 5356 4535 3661 3119 3730 4764 5671 6067 5594 4522 3547 3265 3792 4915 5789 5708 5030 4040 3312 3516 4544 5563 6320 6102 5090 3912 3567 3973 5047 6427 6746 6157 5100 4093 3952 4677 5989 7153 7284 6439 4749 3804 3680 4703 6080 6920 6979 5965 4634 4062 4541 6036 7532 8228 7828 6214 4842 4437 5151 6809 8000 8473 7564 6121 4793 4841 6370 8351 9509 9420 7906 6091 5189 5729 7229 9337 10065 9627 7766 6335 5832 7264 9632 11693 12164 10740 8424 6761 6877 8873 11432 13191 12844 10863 8762 7844 9410 12667 16350 17744 16698 13938 10689 9732 11349 15045 18589 19493 17754 14166 11882 12065 15513 20073 23588 22998 19848 16007 14279 17230 23725 30504 33642 31819 26004 20878 20391 26214 35988 44301 47266 42696 34861 30661 34627 50204 69754 83742 86671 77408 64097 60090 76631 113637 158607 190501 196201 176632 150904 149043 198718 301695 428837 532803 566182 531598 484007 525965 748821 14536 21744 28545 33696 37420 39421 39966 39486 38393 36254 34042 30541 26170 21624 16295 11827 639499 425655 291511 210185 158448 124078 101188 91275 91205 91177 87740 77645 62736 48466 39184 36438 38561 40775 39534 34996 28924 24130 22490 23981 26814 28101 26989 23338 18504 15235 13774 14581 15749 16339 15209 12745 10044 8906 8905 10236 11514 11843 10755 8924 7039 6323 6358 7063 7755 7717 6669 5434 4541 4383 4925 5564 5930 5514 4551 3586 3088 3258 3932 4678 4976 4714 3967 3230 2845 2929 3565 3896 4138 3720 3075 2389 2171 2308 2870 3245 3366 2942 2286 1935 1843 2027 2480 2722 2766 2495 1990 1596 1508 1694 2018 2287 2305 2070 1664 1323 1232 1503 1712 1870 1885 1553 1262 1069 1070 1234 1514 1533 1539 1329 1084 977 1018 1211 1418 1474 1460 1238 945 776 749 874 1084 1189 1086 858 685 649 738 897 1031 1163 903 819 659 583 662 833 889 933 830 656 584 553 633 721 835 805 672 495 424 439 516 585 731 686 567 438 392 386 556 588 680 631 501 393 347 385 546 616 622 555 478 389 331 393 445 503 543 434 351 267 275 363 370 439 412 360 286 255 253 335 385 426 394 351 280 234 290 287 364 440 384 317 267 212 236 315 327 376 352 314 248 197 211 227 281 294 258 241 190 177 217 272 307 322 285 248 189 164 197 211 235 281 223 163 132 138 188 188 214 232 211 146 132 153 160 184 177 200 185 135 109 109 151 184 201 168 155 120 112 112 161 169 195 162 168 105 111 107 147 167 137 146 130 109 95 125 126 152 179 138 109 112 93 90 122 150 132 129 108 78 79 84 108 120 130 120 84 73 75 88 95 111 115 108 82 65 83 91 111 108 119 94 91 62 86 66 89 106 116 112 85 68 71 88 94 95 83 78 66 62 73 96 95 88 90 67 64 68 70 89 83 64 68 68 69 58 82 75 83 76 72 73 56 65 69 68 75 87 76 66 51 68 63 62 67 55 60 52 62 70 80 85 69 74 83 79 70 69 64 68 57 64 56 59 59 64 69 84 71 84 63 73 60 58 59 77 63 66 59 60 69 61 77 59 67 77 71 58 73 90 51 68 60 63 61 68 70 76 56 57 55 70 55 69 81 79 49 70 73 71 88 88 76 66 61 72 61 84 74 86 81 75 69 78 66 88 103 104 95 110 72 74 58 70 87 66 77 81 75 68 74 91 107 110 93 104 110 88 100 112 128 125 105 114 79 81 116 112 126 173 169 139 143 125 82 105 100 129 134 103 102 89 113 134 150 170 169 142 105 117 109 149 161 167 168 148 116 115 159 163 252 193 201 176 153 157 171 191 225 250 228 243 178 206 248 265 338 342 315 298 270 290 267 311 412 344 310 316 305 325 358 473 547 536 524 407 353 381 406 510 503 561 565 475 467 496 595 680 762 855 787 670 644 759 940 1114 1268 1294 1150 1093 1044 1128 1420 1736 1955 2059 2005 1969 1906 2452 2797 3540 4027 4186 4027 3895 3925 4493 5616 7468 8903 10181 10608 10073 9795 10256 11726 15353 19771 24057 26492 26943 25211 23097 23600 30111 44724 67988 97861 130898 161921 187092 200633 201847 192777 171034 143725 114401 87037 63056 42963 28299 17600 10446 6233 3829 2708 2510 2575 2670 2562 2270 2103 1668 1270 1120 1059 1010 926 861 808 715 659 751 802 792 805 773 618 550 489 502 469 491 432 386 328 299 284 265 288 302 297 251 238 219 219 190 193 219 173 152 137 139 138 144 148 160 136 116 121 106 96 129 124 123 113 106 95 104 114 108 92 120 103 84 82 76 60 73 72 88 69 65 70 56 84 71 65 77 73 56 52 53 61 55 53 58 56 53 42 34 48 52 56 56 33 20 43 35 32 35 47 41 40 34 34 38 49 52 64 45 40 36 38 33 25 29 33 26 27 21 24 24 27 30 37 29 29 25 23 17 24 29 28 21 18 10 23 13 20 24 23 25 25 22 13 17 11 16 20 11 21 13 15 17 16 17 20 15 16 13 15 15 11 14 14 13 13 10 10 10 16 23 7 16 14 9 14 12 13 11 11 10 6 15 7 6 8 11 9 13 7 7 7 6 4 14 11 10 9 8 6 6 18 11 11 7 8 11 12 9 5 13 8 9 13 7 3 8 6 12 6 7 7 10 8 2 7 4 7 7 5 3 4 6 9 10 10 5 6 6 9 1 6 6 4 3 6 5 3 1 6 9 4 5 7 8 2 6 10 5 8 8 4 3 4 3 2 6 6 5 6 5 6 1 6 2 8 5 5 1 2 5 2 3 6 2 3 2 1 3 6 1 2 2 3 3 4 3 3 1 2 8 6 3 4 3 1 1 1 2 3 5 5 4 4 6 2 3 5 4 1 2 3 1 4 3 3 2 4 3 3 3 3 1 0 1 3 3 3 4 4 7 2 4 1 5 2 5 2 0 1 0 3 3 1 2 2 3 1 4 2 3 5 1 2 3 4 3 3 5 1 2 2 6 7 2 4 3 3 1 4 5 1 3 3 6 0 5 5 3 2 2 4 2 4 4 4 4 5 3 4 2 3 5 5 2 2 4 3 2 2 1 3 4 1 6 4 0 5 1 8 8 2 4 5 5 9 3 4 3 1 2 3 1 2 2 2 2 1 2 1 4 3 3 2 4 6 6 2 4 5 2 2 3 6 1 6 2 2 5 2 4 7 4 6 4 1 3 2 7 2 6 4 5 3 4 5 6 2 4 3 4 7 8 3 6 1 1 6 7 5 8 3 2 9 3 5 5 4 9 6 5 3 5 4 10 8 6 7 8 8 9 7 6 4 7 6 7 7 7 5 12 7 11 15 15 6 13 14 10 11 8 12 10 12 12 8 6 22 14 10 18 15 10 11 19 17 15 28 21 21 19 14 18 24 35 30 41 36 35 44 43 41 60 57 54 59 70 60 64 75 79 84 81 96 92 97 111 110 133 140 185 160 165 167 188 205 232 257 278 313 356 308 293 306 322 377 451 517 547 561 525 466 453 462 493 692 899 1153 1560 1810 1960 2188 2184 2185 2011 1840 1600 1326 1082 825 621 412 301 217 130 74 64 33 37 25 22 14 16 13 15 13 10 4 6 11 14 13 4 5 13 10 6 6 9 12 7 12 5 8 6 7 9 4 3 7 3 3 2 1 1 6 0 4 5 5 2 3 3 8 2 5 1 3 2 4 2 3 3 4 2 3 0 3 2 3 2 2 2 0 0 3 2 2 1 3 1 1 1 1 2 2 0 2 1 2 0 2 2 0 0 2 3 4 0 0 2 1 0 1 0 2 3 2 2 1 0 0 1 0 0 3 2 1 0 2 1 1 1 1 1 3 3 2 3 0 2 4 2 3 1 2 1 1 3 0 1 1 3 1 3 3 2 3 1 0 3 4 2 2 2 2 1 3 1 1 0 1 1 2 1 2 0 2 2 1 0 0 2 4 1 3 6 1 2 2 2 2 1 1 1 3 3 1 1 0 1 0 0 1 3 1 2 4 1 1 1 1 3 3 1 1 1 1 0 0 1 3 1 0 0 0 4 1 3 0 0 1 2 2 1 2 0 2 0 1 3 1 3 1 2 1 1 2 2 0 4 1 1 2 1 1 2 2 0 2 1 2 2 0 1 1 2 2 4 3 1 2 3 0 1 1 1 1 0 2 3 1 2 1 2 0 2 0 2 0 0 2 0 2 2 0 0 2 3 1 1 1 0 4 3 0 3 4 0 1 0 1 0 1 1 1 1 1 1 5 2 5 2 1 1 1 2 2 1 2 2 4 2 0 1 1 3 3 2 2 0 1 0 0 1 3 1 2 0 0 1 1 0 3 4 0 2 4 4 0 4 1 3 0 3 1 1 1 2 2 0 0 2 2 2 2 2 2 3 1 0 0 2 2 0 3 0 1 0 1 2 0 1 1 1 1 1 1 1 0 1 1 1 2 2 0 2 3 1 2 1 2 1 3 2 0 1 0 1 2 1 2 1 0 1 4 0 1 1 1 0 1 1 0 0 0 3 0 3 1 2 0 2 1 1 1 2 1 0 3 2 1 0 0 0 0 1 2 2 2 0 0 1 2 0 3 4 2 3 1 4 2 1 2 2 3 2 1 1 1 1 0 1 3 2 0 2 1 1 2 1 1 0 1 2 2 1 1 2 1 2 1 1 2 1 1 1 2 1 1 1 2 2 0 1 1 1 1 1 3 0 2 1 1 1 2 1 2 2 1 1 0 1 0 2 1 2 0 2 0 3 1 1 1 0 2 1 2 0 4 3 3 0 0 2 1 1 1 0 2 4 2 1 1 4 0 2 2 1 2 1 4 2 1 4 2 3 1 4 1 6 1 3 3 7 3 1 4 5 10 4 4 4 5 6 6 8 5 8 11 6 6 9 5 6 8 15 6 11 15 10 16 10 12 16 7 15 11 16 14 17 19 20 16 16 16 13 9 17 13 28 28 34 35 52 65 88 82 68 81 77 76 70 72 51 47 25 25 18 9 9 7 6 0 2 3 2 1 0 1 2 1 1 4 0 1 1 1 1 0 2 1 1 0 3 0 0 1 1 2 3 2 0 0 0 1 1 0 3 1 1 1 2 0 1 3 2 2 4 2 0 2 2 1 1 3 1 0 1 1 2 1 0 0 2 1 0 2 2 1 1 1 0 0 1 0 0 1 2 1 2 0 0 0 2 1 2 1 0 0 1 0 2 1 0 4 2 2 1 2 1 2 1 0 2 1 1 0 2 0 1 0 1 2 0 1 0 0 1 2 0 2 0 2 0 1 2 0 1 0 1 1 0 1 1 1 0 1 1 1 1 1 0 1 2 1 1 0 0 2 0 2 2 0 1 1 1 0 1 2 1 3 2 0 2 2 2 2 2 0 1 2 2 1 1 0 1 0 1 0 2 1 1 0 2 2 1 2 0 1 2 1 1 1 4 0 1 2 2 0 0 2 0 1 1 1 1 0 0 2 0 2 1 2 0 0 1 0 0 1 2 0 0 1 1 0 0 3 3 2 1 0 2 0 1 0 2 0 2 2 1 0 0 0 1 0 1 1 0 0 2 1 1 2 1 0 1 1 1 3 1 0 1 2 1 2 1 0 2 0 1 0 0 0 1 0 1 2 0 0 1 0 1 0 1 0 0 1 0 1 0 2 2 0 1 0 0 0 0 0 0 0 2 0 1 0 2 1 0 1 3 1 1 0 0 2 4 2 0 0 1 1 1 1 1 1 1 1 3 0 2 0 0 0 0 1 1 0 0 0 1 0 0 0 0 2 0 1 0 1 2 2 0 1 2 0 0 0 0 2 1 0 1 1 2 1 0 1 1 1 2 0 2 1 1 0 1 0 1 1 0 1 0 1 1 0 2 1 2 2 2 0 2 3 0 1 0 0 0 3 0 0 0 1 1 1 0 3 1 1 1 1 2 1 1 2 3 1 2 0 0 1 2 0 1 0 0 1 0 1 1 0 1 0 0 6 0 3 1 2 3 2 1</counts>
			</dataPoints>
		</scan>
	</xrdMeasurement>
</xrdMeasurements>
