<?xml version="1.0"?>
<xrdMeasurements xmlns="http://www.xrdml.com/XRDMeasurement/2.2" xmlns:xsi="http://www.w3.org/2001/XMLSchema-instance" xsi:schemaLocation="http://www.xrdml.com/XRDMeasurement/2.2 http://www.xrdml.com/XRDMeasurement/2.2/XRDMeasurement.xsd" status="Completed" recordIdentifier="{60EE4040-FBF4-40B5-967A-897B04B4F24C}">
	<comment>
		<entry>Configuration=Parallel Beam for 4inch holder, Owner=MRD, Creation date=2012/03/27 14:08:09</entry>
		<entry>Goniometer=PW3050/65 (Theta/2Theta); Minimum step size 2Theta:0.0001; Minimum step size Omega:0.0001</entry>
		<entry>Sample stage=MRD Cradle; Minimum step size Phi:0.01; Minimum step size Chi:0.01; Minimum step size X:0.01; Minimum step size Y:0.01; Minimum step size Z:0.001</entry>
		<entry>Diffractometer system=XPERT-PRO</entry>
		<entry>Measurement program=C:\PANalytical\Data Collector\Programs\Reflectivity_Batch.xrdmp, Created identifier={007932df-34e3-4485-9cdc-ce5737d00380}, Created by=User-1, Id=User-1, Creation date=2012/04/06 17:50:18, Modified identifier={7EA62F8F-4040-438C-8392-53DC77EF1B54}, Modified by=MRD, Id=WL:DESKTOP-LQ4LR9T:MRD, Modification date=2026/04/16 17:32:52</entry>
		<entry>Fine Calibration Offset for 2Theta = -0.0003 deg</entry>
		<entry>Batch program=C:\PANalytical\Data Collector\Programs\Reflectivity_Batch_4inch.xrdmp, Created identifier={960d4441-9b31-4165-bf03-2a9b383547c1}, Created by=User-1, Id=User-1, Creation date=2012/04/06 17:52:19, Modified identifier={1DDEFD67-F033-44A2-A541-9D9449C44B64}, Modified by=MRD, Id=WL:DESKTOP-LQ4LR9T:MRD, Modification date=2026/01/14 13:23:43</entry>
	</comment>
	<sample type="To be analyzed">
		<id></id>
		<name></name>
		<preparedBy></preparedBy>
	</sample>
	<xrdMeasurement measurementType="Scan" status="Completed" sampleMode="Reflection">
		<comment>
			<entry>PHD Lower Level = 5.63 (keV), PHD Upper Level = 12.88 (keV)</entry>
		</comment>
		<usedWavelength intended="K-Alpha 1">
			<kAlpha1 unit="Angstrom">1.5405980</kAlpha1>
			<kAlpha2 unit="Angstrom">1.5444260</kAlpha2>
			<kBeta unit="Angstrom">1.3922500</kBeta>
			<ratioKAlpha2KAlpha1>0.0000</ratioKAlpha2KAlpha1>
		</usedWavelength>
		<incidentBeamPath>
			<radius unit="mm">320.00</radius>
			<xRayTube id="1010048" name="Empyrean Cu LFF HR (9430 033 7310x) DK401973">
				<tension unit="kV">45.0</tension>
				<current unit="mA">40.0</current>
				<anodeMaterial>Cu</anodeMaterial>
				<focus type="Line">
					<length unit="mm">12.0</length>
					<width unit="mm">0.4</width>
					<takeOffAngle unit="deg">4.1</takeOffAngle>
				</focus>
			</xRayTube>
			<xRayMirror id="27080001" name="Inc. Beam Cu W/Si (hybrid MPD)" hybrid="true">
				<crystal type="Graded" shape="Parabolic">W/Si</crystal>
				<acceptanceAngle unit="deg">0.800</acceptanceAngle>
				<length unit="mm">55.3</length>
			</xRayMirror>
			<monochromator id="23090002" name="Hybrid monochr. 2xGe220 Cu asym." hybrid="true">
				<crystal type="Asymmetric" shape="Flat">Ge</crystal>
				<numberOfReflections>2</numberOfReflections>
				<hkl>
					<h>2</h>
					<k>2</k>
					<l>0</l>
				</hkl>
			</monochromator>
			<beamAttenuator id="26010001" name="Progr. beam attenuator Ni 0.125 mm" xsi:type="intensitySwitchedBeamAttenuatorType">
				<factor>73.00</factor>
				<material>Ni</material>
				<activateLevel unit="counts per second">500000</activateLevel>
				<deactivateLevel unit="counts per second">400000</deactivateLevel>
			</beamAttenuator>
		</incidentBeamPath>
		<sampleOffset>
			<position axis="2Theta" unit="deg">0.0000</position>
			<position axis="Omega" unit="deg">-0.0767</position>
		</sampleOffset>
		<diffractedBeamPath>
			<radius unit="mm">320.00</radius>
			<parallelPlateCollimator id="25010003" name="Parallel plate collimator 0.09°">
				<opening unit="deg">0.09</opening>
			</parallelPlateCollimator>
			<detector id="7010011" name="Proportional detector Xe" xsi:type="pointDetectorType">
				<phd unit="%">
					<lowerLevel>35.0</lowerLevel>
					<upperLevel>80.0</upperLevel>
				</phd>
			</detector>
		</diffractedBeamPath>
		<scan appendNumber="0" mode="Continuous" scanAxis="Omega-2Theta" status="Completed">
			<header>
				<startTimeStamp>2026-04-29T19:58:27+09:00</startTimeStamp>
				<endTimeStamp>2026-04-29T21:41:20+09:00</endTimeStamp>
				<author>
					<name>MRD</name>
				</author>
				<source>
					<applicationSoftware version="7.3">Data Collector</applicationSoftware>
					<instrumentControlSoftware version="2.2F 20161117">XPERT-PRO</instrumentControlSoftware>
					<instrumentID>0000000000000000</instrumentID>
				</source>
			</header>
			<dataPoints>
				<positions axis="2Theta" unit="deg">
					<startPosition>-0.1980</startPosition>
					<endPosition>11.9980</endPosition>
				</positions>
				<positions axis="Omega" unit="deg">
					<startPosition>-0.0990</startPosition>
					<endPosition>5.9990</endPosition>
				</positions>
				<positions axis="Phi" unit="deg">
					<commonPosition>0.00</commonPosition>
				</positions>
				<positions axis="Chi" unit="deg">
					<commonPosition>-0.45</commonPosition>
				</positions>
				<positions axis="X" unit="mm">
					<commonPosition>0.00</commonPosition>
				</positions>
				<positions axis="Y" unit="mm">
					<commonPosition>0.00</commonPosition>
				</positions>
				<positions axis="Z" unit="mm">
					<commonPosition>9.312</commonPosition>
				</positions>
				<beamAttenuationFactors>1.00 1.00 1.00 1.00 1.00 1.00 1.00 1.00 1.00 1.00 1.00 1.00 1.00 1.00 1.00 1.00 1.00 1.00 1.00 1.00 1.00 1.00 1.00 1.00 1.00 1.00 1.00 1.00 1.00 1.00 1.00 1.00 1.00 1.00 1.00 1.00 1.00 1.00 1.00 1.00 1.00 1.00 1.00 1.00 1.00 1.00 1.00 1.00 1.00 73.00 73.00 73.00 73.00 73.00 73.00 73.00 1.00 1.00 1.00 1.00 1.00 1.00 1.00 1.00 1.00 1.00 1.00 1.00 1.00 1.00 1.00 1.00 1.00 1.00 1.00 1.00 1.00 1.00 1.00 1.00 1.00 1.00 1.00 73.00 73.00 73.00 73.00 73.00 73.00 73.00 73.00 73.00 73.00 73.00 73.00 73.00 73.00 73.00 73.00 73.00 73.00 73.00 73.00 73.00 73.00 73.00 73.00 73.00 73.00 73.00 73.00 73.00 73.00 73.00 73.00 73.00 73.00 73.00 73.00 73.00 73.00 73.00 73.00 73.00 73.00 73.00 73.00 73.00 73.00 73.00 73.00 73.00 73.00 73.00 73.00 73.00 73.00 73.00 73.00 73.00 73.00 73.00 73.00 73.00 73.00 73.00 73.00 73.00 73.00 73.00 73.00 73.00 73.00 73.00 73.00 73.00 73.00 73.00 73.00 73.00 73.00 73.00 73.00 73.00 73.00 73.00 73.00 73.00 73.00 73.00 73.00 73.00 73.00 73.00 73.00 73.00 73.00 73.00 73.00 73.00 73.00 73.00 73.00 73.00 73.00 73.00 73.00 73.00 73.00 73.00 73.00 73.00 73.00 73.00 73.00 73.00 73.00 73.00 1.00 1.00 1.00 1.00 1.00 1.00 1.00 1.00 1.00 1.00 1.00 1.00 1.00 1.00 1.00 1.00 1.00 1.00 1.00 1.00 1.00 1.00 1.00 1.00 1.00 1.00 1.00 1.00 1.00 1.00 1.00 1.00 1.00 1.00 1.00 1.00 1.00 1.00 1.00 1.00 1.00 1.00 1.00 1.00 1.00 1.00 1.00 1.00 1.00 1.00 1.00 1.00 1.00 1.00 1.00 1.00 1.00 1.00 1.00 1.00 1.00 1.00 1.00 1.00 1.00 1.00 1.00 1.00 1.00 1.00 1.00 1.00 1.00 1.00 1.00 1.00 1.00 1.00 1.00 1.00 1.00 1.00 1.00 1.00 1.00 1.00 1.00 1.00 1.00 1.00 1.00 1.00 1.00 1.00 1.00 1.00 1.00 1.00 1.00 1.00 1.00 1.00 1.00 1.00 1.00 1.00 1.00 1.00 1.00 1.00 1.00 1.00 1.00 1.00 1.00 1.00 1.00 1.00 1.00 1.00 1.00 1.00 1.00 1.00 1.00 1.00 1.00 1.00 1.00 1.00 1.00 1.00 1.00 1.00 1.00 1.00 1.00 1.00 1.00 1.00 1.00 1.00 1.00 1.00 1.00 1.00 1.00 1.00 1.00 1.00 1.00 1.00 1.00 1.00 1.00 1.00 1.00 1.00 1.00 1.00 1.00 1.00 1.00 1.00 1.00 1.00 1.00 1.00 1.00 1.00 1.00 1.00 1.00 1.00 1.00 1.00 1.00 1.00 1.00 1.00 1.00 1.00 1.00 1.00 1.00 1.00 1.00 1.00 1.00 1.00 1.00 1.00 1.00 1.00 1.00 1.00 1.00 1.00 1.00 1.00 1.00 1.00 1.00 1.00 1.00 1.00 1.00 1.00 1.00 1.00 1.00 1.00 1.00 1.00 1.00 1.00 1.00 1.00 1.00 1.00 1.00 1.00 1.00 1.00 1.00 1.00 1.00 1.00 1.00 1.00 1.00 1.00 1.00 1.00 1.00 1.00 1.00 1.00 1.00 1.00 1.00 1.00 1.00 1.00 1.00 1.00 1.00 1.00 1.00 1.00 1.00 1.00 1.00 1.00 1.00 1.00 1.00 1.00 1.00 1.00 1.00 1.00 1.00 1.00 1.00 1.00 1.00 1.00 1.00 1.00 1.00 1.00 1.00 1.00 1.00 1.00 1.00 1.00 1.00 1.00 1.00 1.00 1.00 1.00 1.00 1.00 1.00 1.00 1.00 1.00 1.00 1.00 1.00 1.00 1.00 1.00 1.00 1.00 1.00 1.00 1.00 1.00 1.00 1.00 1.00 1.00 1.00 1.00 1.00 1.00 1.00 1.00 1.00 1.00 1.00 1.00 1.00 1.00 1.00 1.00 1.00 1.00 1.00 1.00 1.00 1.00 1.00 1.00 1.00 1.00 1.00 1.00 1.00 1.00 1.00 1.00 1.00 1.00 1.00 1.00 1.00 1.00 1.00 1.00 1.00 1.00 1.00 1.00 1.00 1.00 1.00 1.00 1.00 1.00 1.00 1.00 1.00 1.00 1.00 1.00 1.00 1.00 1.00 1.00 1.00 1.00 1.00 1.00 1.00 1.00 1.00 1.00 1.00 1.00 1.00 1.00 1.00 1.00 1.00 1.00 1.00 1.00 1.00 1.00 1.00 1.00 1.00 1.00 1.00 1.00 1.00 1.00 1.00 1.00 1.00 1.00 1.00 1.00 1.00 1.00 1.00 1.00 1.00 1.00 1.00 1.00 1.00 1.00 1.00 1.00 1.00 1.00 1.00 1.00 1.00 1.00 1.00 1.00 1.00 1.00 1.00 1.00 1.00 1.00 1.00 1.00 1.00 1.00 1.00 1.00 1.00 1.00 1.00 1.00 1.00 1.00 1.00 1.00 1.00 1.00 1.00 1.00 1.00 1.00 1.00 1.00 1.00 1.00 1.00 1.00 1.00 1.00 1.00 1.00 1.00 1.00 1.00 1.00 1.00 1.00 1.00 1.00 1.00 1.00 1.00 1.00 1.00 1.00 1.00 1.00 1.00 1.00 1.00 1.00 1.00 1.00 1.00 1.00 1.00 1.00 1.00 1.00 1.00 1.00 1.00 1.00 1.00 1.00 1.00 1.00 1.00 1.00 1.00 1.00 1.00 73.00 73.00 73.00 73.00 73.00 73.00 73.00 73.00 73.00 73.00 73.00 73.00 73.00 73.00 73.00 1.00 1.00 1.00 1.00 1.00 1.00 1.00 1.00 1.00 1.00 1.00 1.00 1.00 1.00 1.00 1.00 1.00 1.00 1.00 1.00 1.00 1.00 1.00 1.00 1.00 1.00 1.00 1.00 1.00 1.00 1.00 1.00 1.00 1.00 1.00 1.00 1.00 1.00 1.00 1.00 1.00 1.00 1.00 1.00 1.00 1.00 1.00 1.00 1.00 1.00 1.00 1.00 1.00 1.00 1.00 1.00 1.00 1.00 1.00 1.00 1.00 1.00 1.00 1.00 1.00 1.00 1.00 1.00 1.00 1.00 1.00 1.00 1.00 1.00 1.00 1.00 1.00 1.00 1.00 1.00 1.00 1.00 1.00 1.00 1.00 1.00 1.00 1.00 1.00 1.00 1.00 1.00 1.00 1.00 1.00 1.00 1.00 1.00 1.00 1.00 1.00 1.00 1.00 1.00 1.00 1.00 1.00 1.00 1.00 1.00 1.00 1.00 1.00 1.00 1.00 1.00 1.00 1.00 1.00 1.00 1.00 1.00 1.00 1.00 1.00 1.00 1.00 1.00 1.00 1.00 1.00 1.00 1.00 1.00 1.00 1.00 1.00 1.00 1.00 1.00 1.00 1.00 1.00 1.00 1.00 1.00 1.00 1.00 1.00 1.00 1.00 1.00 1.00 1.00 1.00 1.00 1.00 1.00 1.00 1.00 1.00 1.00 1.00 1.00 1.00 1.00 1.00 1.00 1.00 1.00 1.00 1.00 1.00 1.00 1.00 1.00 1.00 1.00 1.00 1.00 1.00 1.00 1.00 1.00 1.00 1.00 1.00 1.00 1.00 1.00 1.00 1.00 1.00 1.00 1.00 1.00 1.00 1.00 1.00 1.00 1.00 1.00 1.00 1.00 1.00 1.00 1.00 1.00 1.00 1.00 1.00 1.00 1.00 1.00 1.00 1.00 1.00 1.00 1.00 1.00 1.00 1.00 1.00 1.00 1.00 1.00 1.00 1.00 1.00 1.00 1.00 1.00 1.00 1.00 1.00 1.00 1.00 1.00 1.00 1.00 1.00 1.00 1.00 1.00 1.00 1.00 1.00 1.00 1.00 1.00 1.00 1.00 1.00 1.00 1.00 1.00 1.00 1.00 1.00 1.00 1.00 1.00 1.00 1.00 1.00 1.00 1.00 1.00 1.00 1.00 1.00 1.00 1.00 1.00 1.00 1.00 1.00 1.00 1.00 1.00 1.00 1.00 1.00 1.00 1.00 1.00 1.00 1.00 1.00 1.00 1.00 1.00 1.00 1.00 1.00 1.00 1.00 1.00 1.00 1.00 1.00 1.00 1.00 1.00 1.00 1.00 1.00 1.00 1.00 1.00 1.00 1.00 1.00 1.00 1.00 1.00 1.00 1.00 1.00 1.00 1.00 1.00 1.00 1.00 1.00 1.00 1.00 1.00 1.00 1.00 1.00 1.00 1.00 1.00 1.00 1.00 1.00 1.00 1.00 1.00 1.00 1.00 1.00 1.00 1.00 1.00 1.00 1.00 1.00 1.00 1.00 1.00 1.00 1.00 1.00 1.00 1.00 1.00 1.00 1.00 1.00 1.00 1.00 1.00 1.00 1.00 1.00 1.00 1.00 1.00 1.00 1.00 1.00 1.00 1.00 1.00 1.00 1.00 1.00 1.00 1.00 1.00 1.00 1.00 1.00 1.00 1.00 1.00 1.00 1.00 1.00 1.00 1.00 1.00 1.00 1.00 1.00 1.00 1.00 1.00 1.00 1.00 1.00 1.00 1.00 1.00 1.00 1.00 1.00 1.00 1.00 1.00 1.00 1.00 1.00 1.00 1.00 1.00 1.00 1.00 1.00 1.00 1.00 1.00 1.00 1.00 1.00 1.00 1.00 1.00 1.00 1.00 1.00 1.00 1.00 1.00 1.00 1.00 1.00 1.00 1.00 1.00 1.00 1.00 1.00 1.00 1.00 1.00 1.00 1.00 1.00 1.00 1.00 1.00 1.00 1.00 1.00 1.00 1.00 1.00 1.00 1.00 1.00 1.00 1.00 1.00 1.00 1.00 1.00 1.00 1.00 1.00 1.00 1.00 1.00 1.00 1.00 1.00 1.00 1.00 1.00 1.00 1.00 1.00 1.00 1.00 1.00 1.00 1.00 1.00 1.00 1.00 1.00 1.00 1.00 1.00 1.00 1.00 1.00 1.00 1.00 1.00 1.00 1.00 1.00 1.00 1.00 1.00 1.00 1.00 1.00 1.00 1.00 1.00 1.00 1.00 1.00 1.00 1.00 1.00 1.00 1.00 1.00 1.00 1.00 1.00 1.00 1.00 1.00 1.00 1.00 1.00 1.00 1.00 1.00 1.00 1.00 1.00 1.00 1.00 1.00 1.00 1.00 1.00 1.00 1.00 1.00 1.00 1.00 1.00 1.00 1.00 1.00 1.00 1.00 1.00 1.00 1.00 1.00 1.00 1.00 1.00 1.00 1.00 1.00 1.00 1.00 1.00 1.00 1.00 1.00 1.00 1.00 1.00 1.00 1.00 1.00 1.00 1.00 1.00 1.00 1.00 1.00 1.00 1.00 1.00 1.00 1.00 1.00 1.00 1.00 1.00 1.00 1.00 1.00 1.00 1.00 1.00 1.00 1.00 1.00 1.00 1.00 1.00 1.00 1.00 1.00 1.00 1.00 1.00 1.00 1.00 1.00 1.00 1.00 1.00 1.00 1.00 1.00 1.00 1.00 1.00 1.00 1.00 1.00 1.00 1.00 1.00 1.00 1.00 1.00 1.00 1.00 1.00 1.00 1.00 1.00 1.00 1.00 1.00 1.00 1.00 1.00 1.00 1.00 1.00 1.00 1.00 1.00 1.00 1.00 1.00 1.00 1.00 1.00 1.00 1.00 1.00 1.00 1.00 1.00 1.00 1.00 1.00 1.00 1.00 1.00 1.00 1.00 1.00 1.00 1.00 1.00 1.00 1.00 1.00 1.00 1.00 1.00 1.00 1.00 1.00 1.00 1.00 1.00 1.00 1.00 1.00 1.00 1.00 1.00 1.00 1.00 1.00 1.00 1.00 1.00 1.00 1.00 1.00 1.00 1.00 1.00 1.00 1.00 1.00 1.00 1.00 1.00 1.00 1.00 1.00 1.00 1.00 1.00 1.00 1.00 1.00 1.00 1.00 1.00 1.00 1.00 1.00 1.00 1.00 1.00 1.00 1.00 1.00 1.00 1.00 1.00 1.00 1.00 1.00 1.00 1.00 1.00 1.00 1.00 1.00 1.00 1.00 1.00 1.00 1.00 1.00 1.00 1.00 1.00 1.00 1.00 1.00 1.00 1.00 1.00 1.00 1.00 1.00 1.00 1.00 1.00 1.00 1.00 1.00 1.00 1.00 1.00 1.00 1.00 1.00 1.00 1.00 1.00 1.00 1.00 1.00 1.00 1.00 1.00 1.00 1.00 1.00 1.00 1.00 1.00 1.00 1.00 1.00 1.00 1.00 1.00 1.00 1.00 1.00 1.00 1.00 1.00 1.00 1.00 1.00 1.00 1.00 1.00 1.00 1.00 1.00 1.00 1.00 1.00 1.00 1.00 1.00 1.00 1.00 1.00 1.00 1.00 1.00 1.00 1.00 1.00 1.00 1.00 1.00 1.00 1.00 1.00 1.00 1.00 1.00 1.00 1.00 1.00 1.00 1.00 1.00 1.00 1.00 1.00 1.00 1.00 1.00 1.00 1.00 1.00 1.00 1.00 1.00 1.00 1.00 1.00 1.00 1.00 1.00 1.00 1.00 1.00 1.00 1.00 1.00 1.00 1.00 1.00 1.00 1.00 1.00 1.00 1.00 1.00 1.00 1.00 1.00 1.00 1.00 1.00 1.00 1.00 1.00 1.00 1.00 1.00 1.00 1.00 1.00 1.00 1.00 1.00 1.00 1.00 1.00 1.00 1.00 1.00 1.00 1.00 1.00 1.00 1.00 1.00 1.00 1.00 1.00 1.00 1.00 1.00 1.00 1.00 1.00 1.00 1.00 1.00 1.00 1.00 1.00 1.00 1.00 1.00 1.00 1.00 1.00 1.00 1.00 1.00 1.00 1.00 1.00 1.00 1.00 1.00 1.00 1.00 1.00 1.00 1.00 1.00 1.00 1.00 1.00 1.00 1.00 1.00 1.00 1.00 1.00 1.00 1.00 1.00 1.00 1.00 1.00 1.00 1.00 1.00 1.00 1.00 1.00 1.00 1.00 1.00 1.00 1.00 1.00 1.00 1.00 1.00 1.00 1.00 1.00 1.00 1.00 1.00 1.00 1.00 1.00 1.00 1.00 1.00 1.00 1.00 1.00 1.00 1.00 1.00 1.00 1.00 1.00 1.00 1.00 1.00 1.00 1.00 1.00 1.00 1.00 1.00 1.00 1.00 1.00 1.00 1.00 1.00 1.00 1.00 1.00 1.00 1.00 1.00 1.00 1.00 1.00 1.00 1.00 1.00 1.00 1.00 1.00 1.00 1.00 1.00 1.00 1.00 1.00 1.00 1.00 1.00 1.00 1.00 1.00 1.00 1.00 1.00 1.00 1.00 1.00 1.00 1.00 1.00 1.00 1.00 1.00 1.00 1.00 1.00 1.00 1.00 1.00 1.00 1.00 1.00 1.00 1.00 1.00 1.00 1.00 1.00 1.00 1.00 1.00 1.00 1.00 1.00 1.00 1.00 1.00 1.00 1.00 1.00 1.00 1.00 1.00 1.00 1.00 1.00 1.00 1.00 1.00 1.00 1.00 1.00 1.00 1.00 1.00 1.00 1.00 1.00 1.00 1.00 1.00 1.00 1.00 1.00 1.00 1.00 1.00 1.00 1.00 1.00 1.00 1.00 1.00 1.00 1.00 1.00 1.00 1.00 1.00 1.00 1.00 1.00 1.00 1.00 1.00 1.00 1.00 1.00 1.00 1.00 1.00 1.00 1.00 1.00 1.00 1.00 1.00 1.00 1.00 1.00 1.00 1.00 1.00 1.00 1.00 1.00 1.00 1.00 1.00 1.00 1.00 1.00 1.00 1.00 1.00 1.00 1.00 1.00 1.00 1.00 1.00 1.00 1.00 1.00 1.00 1.00 1.00 1.00 1.00 1.00 1.00 1.00 1.00 1.00 1.00 1.00 1.00 1.00 1.00 1.00 1.00 1.00 1.00 1.00 1.00 1.00 1.00 1.00 1.00 1.00 1.00 1.00 1.00 1.00 1.00 1.00 1.00 1.00 1.00 1.00 1.00 1.00 1.00 1.00 1.00 1.00 1.00 1.00 1.00 1.00 1.00 1.00 1.00 1.00 1.00 1.00 1.00 1.00 1.00 1.00 1.00 1.00 1.00 1.00 1.00 1.00 1.00 1.00 1.00 1.00 1.00 1.00 1.00 1.00 1.00 1.00 1.00 1.00 1.00 1.00 1.00 1.00 1.00 1.00 1.00 1.00 1.00 1.00 1.00 1.00 1.00 1.00 1.00 1.00 1.00 1.00 1.00 1.00 1.00 1.00 1.00 1.00 1.00 1.00 1.00 1.00 1.00 1.00 1.00 1.00 1.00 1.00 1.00 1.00 1.00 1.00 1.00 1.00 1.00 1.00 1.00 1.00 1.00 1.00 1.00 1.00 1.00 1.00 1.00 1.00 1.00 1.00 1.00 1.00 1.00 1.00 1.00 1.00 1.00 1.00 1.00 1.00 1.00 1.00 1.00 1.00 1.00 1.00 1.00 1.00 1.00 1.00 1.00 1.00 1.00 1.00 1.00 1.00 1.00 1.00 1.00 1.00 1.00 1.00 1.00 1.00 1.00 1.00 1.00 1.00 1.00 1.00 1.00 1.00 1.00 1.00 1.00 1.00 1.00 1.00 1.00 1.00 1.00 1.00 1.00 1.00 1.00 1.00 1.00 1.00 1.00 1.00 1.00 1.00 1.00 1.00 1.00 1.00 1.00 1.00 1.00 1.00 1.00 1.00 1.00 1.00 1.00 1.00 1.00 1.00 1.00 1.00 1.00 1.00 1.00 1.00 1.00 1.00 1.00 1.00 1.00 1.00 1.00 1.00 1.00 1.00 1.00 1.00 1.00 1.00 1.00 1.00 1.00 1.00 1.00 1.00 1.00 1.00 1.00 1.00 1.00 1.00 1.00 1.00 1.00 1.00 1.00 1.00 1.00 1.00 1.00 1.00 1.00 1.00 1.00 1.00 1.00 1.00 1.00 1.00 1.00 1.00 1.00 1.00 1.00 1.00 1.00 1.00 1.00 1.00 1.00 1.00 1.00 1.00 1.00 1.00 1.00 1.00 1.00 1.00 1.00 1.00 1.00 1.00 1.00 1.00 1.00 1.00 1.00 1.00 1.00 1.00 1.00 1.00 1.00 1.00 1.00 1.00 1.00 1.00 1.00 1.00 1.00 1.00 1.00 1.00 1.00 1.00 1.00 1.00 1.00 1.00 1.00 1.00 1.00 1.00 1.00 1.00 1.00 1.00 1.00 1.00 1.00 1.00 1.00 1.00 1.00 1.00 1.00 1.00 1.00 1.00 1.00 1.00 1.00 1.00 1.00 1.00 1.00 1.00 1.00 1.00 1.00 1.00 1.00 1.00 1.00 1.00 1.00 1.00 1.00 1.00 1.00 1.00 1.00 1.00 1.00 1.00 1.00 1.00 1.00 1.00 1.00 1.00 1.00 1.00 1.00 1.00 1.00 1.00 1.00 1.00 1.00 1.00 1.00 1.00 1.00 1.00 1.00 1.00 1.00 1.00 1.00 1.00 1.00 1.00 1.00 1.00 1.00 1.00 1.00 1.00 1.00 1.00 1.00 1.00 1.00 1.00 1.00 1.00 1.00 1.00 1.00 1.00 1.00 1.00 1.00 1.00 1.00 1.00 1.00 1.00 1.00 1.00 1.00 1.00 1.00 1.00 1.00 1.00 1.00 1.00 1.00 1.00 1.00 1.00 1.00 1.00 1.00 1.00 1.00 1.00 1.00 1.00 1.00 1.00 1.00 1.00 1.00 1.00 1.00 1.00 1.00 1.00 1.00 1.00 1.00 1.00 1.00 1.00 1.00 1.00 1.00 1.00 1.00 1.00 1.00 1.00 1.00 1.00 1.00 1.00 1.00 1.00 1.00 1.00 1.00 1.00 1.00 1.00 1.00 1.00 1.00 1.00 1.00 1.00 1.00 1.00 1.00 1.00 1.00 1.00 1.00 1.00 1.00 1.00 1.00 1.00 1.00 1.00 1.00 1.00 1.00 1.00 1.00 1.00 1.00 1.00 1.00 1.00 1.00 1.00 1.00 1.00 1.00 1.00 1.00 1.00 1.00 1.00 1.00 1.00 1.00 1.00 1.00 1.00 1.00 1.00 1.00 1.00 1.00 1.00 1.00 1.00 1.00 1.00 1.00 1.00 1.00 1.00 1.00 1.00 1.00 1.00 1.00 1.00 1.00 1.00 1.00 1.00 1.00 1.00 1.00 1.00 1.00 1.00 1.00 1.00 1.00 1.00 1.00 1.00 1.00 1.00 1.00 1.00 1.00 1.00 1.00 1.00 1.00 1.00 1.00 1.00 1.00 1.00 1.00 1.00 1.00 1.00 1.00 1.00 1.00 1.00 1.00 1.00 1.00 1.00 1.00 1.00 1.00 1.00 1.00 1.00 1.00 1.00 1.00 1.00 1.00 1.00 1.00 1.00 1.00 1.00 1.00 1.00 1.00 1.00 1.00 1.00 1.00 1.00 1.00 1.00 1.00 1.00 1.00 1.00 1.00 1.00 1.00 1.00 1.00 1.00 1.00 1.00 1.00 1.00 1.00 1.00 1.00 1.00 1.00 1.00 1.00 1.00 1.00 1.00 1.00 1.00 1.00 1.00 1.00 1.00 1.00 1.00 1.00 1.00 1.00 1.00 1.00 1.00 1.00 1.00 1.00 1.00 1.00 1.00 1.00 1.00 1.00 1.00 1.00 1.00 1.00 1.00 1.00 1.00 1.00 1.00 1.00 1.00 1.00 1.00 1.00 1.00 1.00 1.00 1.00 1.00 1.00 1.00 1.00 1.00 1.00 1.00 1.00 1.00 1.00 1.00 1.00 1.00 1.00 1.00 1.00 1.00 1.00 1.00 1.00 1.00 1.00 1.00 1.00 1.00 1.00 1.00 1.00 1.00 1.00 1.00 1.00 1.00 1.00 1.00 1.00 1.00 1.00 1.00 1.00 1.00 1.00 1.00 1.00 1.00 1.00 1.00 1.00 1.00 1.00 1.00 1.00 1.00 1.00 1.00 1.00 1.00 1.00 1.00 1.00 1.00 1.00 1.00 1.00 1.00 1.00 1.00 1.00 1.00 1.00 1.00 1.00 1.00 1.00 1.00 1.00 1.00 1.00 1.00 1.00 1.00 1.00 1.00 1.00 1.00 1.00 1.00 1.00 1.00 1.00 1.00 1.00 1.00 1.00 1.00 1.00 1.00 1.00 1.00 1.00 1.00 1.00 1.00 1.00 1.00 1.00 1.00 1.00 1.00 1.00 1.00 1.00 1.00 1.00 1.00 1.00 1.00 1.00 1.00 1.00 1.00 1.00 1.00 1.00 1.00 1.00 1.00 1.00 1.00 1.00 1.00 1.00 1.00 1.00 1.00 1.00 1.00 1.00 1.00 1.00 1.00 1.00 1.00 1.00 1.00 1.00 1.00 1.00 1.00 1.00 1.00 1.00 1.00 1.00 1.00 1.00 1.00 1.00 1.00 1.00 1.00 1.00 1.00 1.00 1.00 1.00 1.00 1.00 1.00 1.00 1.00 1.00 1.00 1.00 1.00 1.00 1.00 1.00 1.00 1.00 1.00 1.00 1.00 1.00 1.00 1.00 1.00 1.00 1.00 1.00 1.00 1.00 1.00 1.00 1.00 1.00 1.00 1.00 1.00 1.00 1.00 1.00 1.00 1.00 1.00 1.00 1.00 1.00 1.00 1.00 1.00 1.00 1.00 1.00 1.00 1.00 1.00 1.00 1.00 1.00 1.00 1.00 1.00 1.00 1.00 1.00 1.00 1.00 1.00 1.00 1.00 1.00 1.00 1.00 1.00 1.00 1.00 1.00 1.00 1.00 1.00 1.00 1.00 1.00 1.00 1.00 1.00 1.00 1.00 1.00 1.00 1.00 1.00 1.00 1.00 1.00 1.00 1.00 1.00 1.00 1.00 1.00 1.00 1.00 1.00 1.00 1.00 1.00 1.00 1.00 1.00 1.00 1.00 1.00 1.00 1.00 1.00 1.00 1.00 1.00 1.00 1.00 1.00 1.00 1.00 1.00 1.00 1.00 1.00 1.00 1.00 1.00 1.00 1.00 1.00 1.00 1.00 1.00 1.00 1.00 1.00 1.00 1.00 1.00 1.00 1.00 1.00 1.00 1.00 1.00 1.00 1.00 1.00 1.00 1.00 1.00 1.00 1.00 1.00 1.00 1.00 1.00 1.00 1.00 1.00 1.00 1.00 1.00 1.00 1.00 1.00 1.00 1.00 1.00 1.00 1.00 1.00 1.00 1.00 1.00 1.00 1.00 1.00 1.00 1.00 1.00 1.00 1.00 1.00 1.00 1.00 1.00 1.00 1.00 1.00 1.00 1.00 1.00 1.00 1.00 1.00 1.00 1.00 1.00 1.00 1.00 1.00 1.00 1.00 1.00 1.00 1.00 1.00 1.00 1.00 1.00 1.00 1.00 1.00 1.00 1.00 1.00 1.00 1.00 1.00 1.00 1.00 1.00 1.00 1.00 1.00 1.00 1.00 1.00 1.00 1.00 1.00 1.00 1.00 1.00 1.00 1.00 1.00 1.00 1.00 1.00 1.00 1.00 1.00 1.00 1.00 1.00 1.00 1.00 1.00 1.00 1.00 1.00 1.00 1.00 1.00 1.00 1.00 1.00 1.00 1.00 1.00 1.00 1.00 1.00 1.00 1.00 1.00 1.00 1.00 1.00 1.00 1.00 1.00 1.00 1.00 1.00 1.00 1.00 1.00 1.00 1.00 1.00 1.00 1.00 1.00 1.00 1.00 1.00 1.00 1.00 1.00 1.00 1.00 1.00 1.00 1.00 1.00 1.00 1.00 1.00 1.00 1.00 1.00 1.00 1.00 1.00 1.00 1.00 1.00 1.00 1.00 1.00 1.00 1.00 1.00 1.00 1.00 1.00 1.00 1.00 1.00 1.00 1.00 1.00 1.00 1.00 1.00 1.00 1.00 1.00 1.00 1.00 1.00 1.00 1.00 1.00 1.00 1.00 1.00 1.00 1.00 1.00 1.00 1.00 1.00 1.00 1.00 1.00 1.00 1.00 1.00 1.00 1.00 1.00 1.00 1.00 1.00 1.00</beamAttenuationFactors>
				<commonCountingTime unit="seconds">2.00</commonCountingTime>
				<counts unit="counts">1 0 1 0 1 0 1 0 0 1 0 0 0 1 0 0 0 2 0 0 1 1 1 0 0 0 0 0 1 1 4 0 1 2 0 3 3 5 7 6 12 10 29 111 537 3083 17576 91628 388028 15888 35616 51683 50443 39542 26449 16512 831947 575470 460982 417440 409650 416461 432651 456828 483018 513938 541163 571546 601127 629510 658137 687448 715961 743342 771259 797585 823996 853005 879835 905124 928054 956553 979057 12678 13086 13360 13639 13953 14253 14551 14635 14910 15395 15482 15706 16007 16294 16595 16915 17109 17653 17753 17912 18226 18326 18451 18825 19066 19487 19667 19486 20168 20197 20438 20690 20694 20780 21447 21342 21607 21649 22228 22179 22581 22398 22782 23029 23371 23456 23535 24046 23932 24089 24287 24559 24724 25175 25467 25213 25633 25531 25942 25905 26070 26118 26204 26370 26585 26627 26935 27055 26933 27424 27521 27317 27689 27797 27966 28006 28079 28118 28066 28535 28258 28586 28532 28531 28262 28831 28566 28476 28355 28445 28755 28310 28348 28289 28647 28338 27921 27733 27762 27355 27299 27340 26419 26340 25669 24440 23570 22091 20544 18896 17099 15581 13816 12814 11637 842131 772515 716059 665159 617743 576175 538197 504426 472951 448334 422433 401518 380828 361081 345812 329433 312497 300113 288160 276061 263227 252038 242886 234020 224086 214413 205810 200912 194433 186237 177105 169755 167887 163161 156013 148836 143659 141639 138917 132763 123964 120241 117920 117712 113772 107946 103021 102580 102437 101149 96363 91094 88450 88645 88731 85924 82056 76748 76204 77002 76986 74314 70192 66682 65916 66528 67142 64139 59324 57265 56531 58861 59122 56662 52173 50065 49883 52019 52022 50412 46414 44094 43784 45135 46443 45812 42671 39698 38119 39218 40992 41218 38520 35307 33637 33634 35502 36614 35321 32899 30024 29680 30940 32719 32977 31739 28650 26739 26610 28465 29517 29245 27200 24643 23198 24128 25782 26948 25930 23933 21523 20492 21470 23024 23824 22908 20668 18834 18680 20038 21625 22009 20652 18753 16882 16719 18048 19432 19826 18578 16526 14607 15091 16297 17854 18088 16766 15228 13812 13996 15051 16197 16389 15161 13353 12336 12879 14181 15404 15450 14331 12555 11742 11959 13123 14421 14738 13505 11604 10379 10872 11988 13363 13523 12676 10888 9814 9989 11196 12530 12856 11970 10334 9085 8931 10061 11403 12039 11369 9741 8543 8371 9409 10791 11353 10874 9372 8071 7730 8434 9637 10357 10085 8756 7742 7063 7615 8734 9844 9752 8663 7359 6546 6804 8265 9290 9468 8649 7416 6380 6251 7240 8524 9058 8920 7624 6374 6044 6608 7889 8663 8650 7685 6357 5598 5789 6878 8120 8456 8019 6802 5813 5427 6347 7700 8393 8346 7456 6124 5501 5636 6731 7566 8083 7293 6018 4937 4887 5628 6825 7410 7242 6415 5229 4868 5432 6534 7516 7632 6700 5444 4575 4869 5590 6867 7389 6929 6087 4908 4535 5210 6217 7207 7034 6533 5124 4400 4434 5384 6628 7194 6657 5507 4529 4336 4813 5999 6949 6829 5991 4949 4088 4418 5505 6671 7311 6668 5607 4613 4363 5000 6221 7166 7241 6459 5089 4434 4480 5424 6589 7118 6631 5431 4574 4240 4948 6138 7167 7202 6352 5007 4207 4437 5439 6734 7514 7135 5787 4670 4417 4886 6395 7793 7784 6986 5472 4647 4434 5208 6608 7625 7263 6533 5062 4424 4645 6116 7526 8222 7662 6260 5020 4589 5465 7004 8377 8623 7800 6372 4883 5194 6424 8122 9195 9324 7953 5992 4796 5049 6445 8062 9020 8617 7251 5723 5271 6035 8175 9879 10442 9440 7500 5884 5770 7107 9143 10465 10541 9119 7119 6058 6515 8559 10679 11904 11233 9312 7255 6344 7656 10015 12320 12813 11387 9045 7344 7631 9968 12887 14827 14706 12234 9404 7969 8787 11422 14443 16215 15074 12223 9923 9484 12281 16749 20338 21487 18852 14911 11951 11620 15062 19707 22813 22469 19515 15296 13228 15506 20183 25273 27702 26041 21149 16840 17011 22146 30383 36611 38257 33916 26461 21996 24087 32963 44257 51968 51565 43695 34682 32413 42534 62424 82786 93797 90883 76007 62516 65425 93209 138643 184637 208090 199027 168841 143975 161327 241720 369395 498551 577765 570132 509281 479994 599533 937423 18445 25786 31765 36070 38370 39556 39640 38951 37328 35034 31729 27914 23054 18175 13178 720541 472098 311110 218738 162439 124592 98532 84436 80990 82690 82342 74863 61970 46762 35672 31500 31991 35414 35910 32638 26928 21132 18180 18919 21430 24075 23907 21032 16612 12479 10884 11011 12316 13172 12802 10485 8164 6548 6259 7147 8556 9093 8424 7046 5328 4325 4143 4693 5482 5607 4971 3959 3014 2595 3006 3680 4040 4032 3350 2444 1910 1944 2389 3035 3438 3349 2730 2038 1658 1577 2171 2534 2611 2502 2001 1556 1167 1216 1588 1809 2055 1961 1562 1151 943 1037 1265 1585 1659 1528 1190 909 718 836 990 1290 1305 1190 990 690 582 638 774 933 1032 916 703 538 434 510 672 800 831 756 574 473 365 476 646 772 739 706 514 385 337 344 450 522 494 400 336 275 276 332 464 543 516 413 317 226 240 322 358 396 410 335 235 202 215 302 374 386 325 269 215 187 186 227 272 302 295 219 152 161 194 213 288 281 264 215 177 136 153 227 248 286 257 158 124 116 138 178 221 233 202 153 130 110 115 143 181 188 153 136 97 118 148 151 195 185 137 118 83 99 114 168 179 173 142 134 94 96 123 171 193 163 136 120 108 84 92 114 138 145 127 121 105 98 120 157 177 160 137 123 90 74 89 114 130 141 104 98 78 75 97 109 125 120 110 83 78 78 84 136 117 139 117 103 77 78 100 112 126 124 101 70 71 83 93 96 118 115 112 87 69 74 87 91 131 119 75 73 69 86 110 130 134 124 83 85 82 74 92 120 116 95 104 57 65 64 84 96 88 104 70 59 78 79 84 114 91 98 84 70 73 78 85 100 100 98 70 65 62 92 93 96 97 79 79 54 62 69 62 76 93 87 69 67 65 70 87 100 111 99 82 78 61 60 73 114 98 95 93 84 67 59 70 70 73 57 55 60 55 74 75 90 92 89 73 63 62 66 70 85 79 85 65 66 73 86 92 110 97 77 80 78 52 73 84 83 78 81 53 51 66 81 95 106 101 74 66 60 52 75 95 91 80 116 86 62 70 71 90 87 95 89 65 80 67 73 91 104 69 74 72 61 72 67 65 77 72 74 51 66 66 83 103 111 92 87 65 71 71 80 89 94 94 59 66 57 69 86 91 110 109 91 75 74 79 76 78 77 80 81 80 53 73 101 102 101 116 96 89 83 84 111 107 122 131 115 97 83 85 115 129 150 135 125 130 115 104 87 100 100 103 106 103 85 91 100 129 150 179 134 125 132 104 144 167 144 154 114 135 112 116 145 159 203 203 185 162 145 168 182 247 224 223 189 163 162 214 265 295 329 337 246 250 239 229 282 291 348 337 318 253 306 334 414 519 518 523 445 333 307 390 415 498 483 477 434 436 404 465 562 652 776 710 672 667 646 722 869 1095 1169 1138 1050 1046 937 1103 1351 1696 1838 1939 1861 1835 2008 2370 2809 3545 3898 3958 3929 3723 3847 4401 5693 7339 9011 9947 10077 9683 9327 9981 11925 15632 20026 24020 26453 26503 24490 22206 23309 31077 46406 71171 102786 136278 168352 191159 202637 201352 189138 167182 139071 109432 82022 57598 39067 25019 15432 8945 5364 3443 2639 2619 2719 2804 2788 2507 2048 1672 1403 1177 1111 1141 1026 1001 875 805 762 789 915 906 910 781 734 635 554 566 555 534 524 484 371 344 307 344 356 352 343 311 286 263 256 249 239 230 219 227 163 170 172 184 199 193 191 167 147 121 146 150 156 159 168 154 138 122 136 153 142 158 139 117 100 86 87 103 102 104 116 95 78 87 85 92 99 104 91 65 83 57 81 84 69 72 71 51 67 51 64 64 70 68 54 58 49 61 47 48 66 54 46 61 42 54 56 64 67 64 55 57 45 42 43 41 43 40 39 26 38 30 36 38 39 37 32 30 34 34 40 40 39 19 25 24 33 28 29 34 35 32 12 18 23 18 18 23 42 17 25 19 24 20 24 28 29 20 20 21 11 23 13 16 24 15 17 11 12 21 21 21 15 23 8 15 12 20 18 24 16 17 9 13 10 15 17 17 23 18 11 15 11 14 18 17 11 22 12 11 7 9 17 18 16 16 16 15 7 15 9 10 12 10 5 12 8 9 13 14 9 10 7 11 2 6 9 9 11 10 5 4 8 6 11 11 11 4 12 6 9 11 9 7 4 5 7 6 6 1 11 9 5 1 7 2 3 7 5 8 7 4 1 5 4 6 5 12 6 1 5 3 4 2 6 3 1 2 3 5 4 5 6 7 5 0 4 6 2 0 4 6 5 1 3 3 6 5 7 4 5 1 5 4 4 2 1 4 1 2 2 2 2 3 5 2 3 2 4 4 4 3 2 2 3 3 3 3 2 1 2 2 3 2 2 2 0 2 4 3 1 1 0 2 4 0 2 3 3 5 2 2 3 1 0 1 1 0 6 2 0 1 1 8 2 2 3 3 1 3 1 4 1 2 2 4 3 3 1 1 1 1 2 2 2 4 2 2 2 0 0 2 1 0 1 2 3 1 2 2 2 2 1 0 3 2 2 0 1 3 2 1 2 1 4 4 2 1 1 5 1 4 5 0 4 1 1 4 3 2 4 2 1 1 2 2 1 1 0 4 1 4 2 3 6 0 3 0 3 4 2 1 1 2 3 4 3 2 3 0 1 4 4 1 1 5 4 2 2 3 1 2 4 4 2 4 2 2 4 3 5 1 4 2 2 2 3 1 3 2 1 2 2 4 6 1 1 4 1 6 3 6 4 4 2 4 3 9 6 3 4 4 5 3 4 3 2 6 4 7 10 4 1 3 9 12 11 4 8 11 6 7 12 13 9 9 11 6 9 9 20 17 8 14 9 16 19 17 16 22 15 15 25 20 22 34 43 42 32 46 34 38 46 57 46 50 49 71 61 61 72 60 76 82 90 87 84 110 113 117 129 139 159 172 182 185 187 221 251 266 298 329 336 350 309 322 389 414 498 525 566 541 552 470 490 471 650 877 1173 1436 1763 2085 2329 2358 2308 2266 1935 1589 1383 1111 847 639 400 274 180 126 80 70 49 32 28 28 29 9 14 16 19 12 11 9 8 12 9 14 10 13 7 6 8 12 6 2 9 9 7 6 3 2 3 6 7 6 3 4 6 1 1 3 4 7 3 0 2 5 7 2 3 3 3 3 3 5 3 0 1 1 1 2 2 2 1 2 2 1 1 1 3 0 5 2 2 2 1 3 1 4 2 1 1 1 0 0 1 0 1 0 1 3 1 2 1 1 0 1 1 0 0 3 1 0 0 1 0 0 3 1 3 1 0 2 2 0 1 1 1 2 1 1 4 0 2 2 0 2 4 0 1 1 0 1 1 1 2 2 2 1 0 3 0 0 2 1 0 1 0 1 1 2 0 2 1 0 0 0 2 1 0 3 0 0 2 2 1 0 0 1 0 0 2 0 0 2 1 0 1 0 2 2 2 0 0 0 2 0 5 0 1 1 0 1 1 0 2 0 3 0 3 0 0 1 0 2 0 0 1 0 1 0 1 0 3 1 0 0 0 2 1 0 0 1 1 0 0 1 1 0 0 0 1 1 2 2 2 1 2 0 0 1 0 1 0 1 1 0 0 1 1 2 0 0 0 0 0 2 1 0 1 3 0 3 3 4 1 1 0 3 0 2 0 0 0 0 0 0 2 2 3 0 1 0 0 0 2 0 4 1 1 0 1 1 0 1 1 1 4 1 0 0 1 0 3 0 1 1 0 0 0 4 2 1 1 2 2 1 1 0 1 0 0 1 0 1 1 0 1 1 1 0 0 0 1 1 0 2 2 1 2 0 0 0 0 0 2 0 1 0 0 1 2 1 0 0 1 0 3 0 2 1 1 1 1 2 0 1 0 2 0 0 1 0 1 1 1 3 1 1 3 1 0 0 0 2 0 5 2 0 2 0 1 1 0 0 0 1 2 0 0 1 0 1 1 1 2 1 1 2 0 1 0 2 0 1 1 2 0 1 1 1 0 0 0 0 1 1 0 3 0 0 1 0 1 2 2 2 3 1 0 0 1 2 0 1 0 0 3 0 0 2 0 0 0 2 1 1 0 1 1 0 2 1 0 1 0 1 1 0 1 0 2 1 1 0 2 3 1 1 0 1 0 0 0 1 0 1 0 0 1 0 1 2 0 1 1 0 1 1 1 0 2 0 1 0 2 0 3 2 0 0 0 1 1 0 2 1 1 1 2 1 0 1 1 1 1 3 2 1 0 2 3 0 1 0 0 0 4 2 1 3 0 1 0 1 1 1 3 1 1 0 2 0 1 1 0 0 1 0 2 0 2 3 3 2 1 1 1 2 3 2 3 6 5 4 1 6 1 9 8 13 9 6 6 5 8 14 13 8 9 10 9 4 5 12 12 9 14 17 17 17 10 19 13 10 25 26 18 23 11 18 15 14 17 11 26 38 39 42 69 84 85 83 67 80 74 75 61 42 47 39 21 21 6 7 5 2 4 0 0 1 0 0 0 0 2 1 1 1 0 1 0 1 1 1 1 1 1 1 1 1 0 0 0 0 1 0 0 1 0 0 0 0 1 1 0 0 0 0 1 0 0 0 1 0 0 1 1 1 1 1 1 0 1 0 0 0 0 0 0 0 0 0 1 0 0 0 0 0 0 2 2 0 2 0 0 0 1 1 0 0 0 0 1 0 0 0 0 1 0 1 0 0 0 0 0 0 0 0 1 0 0 0 0 0 1 0 0 0 0 0 0 1 0 2 1 0 0 0 0 0 0 0 0 0 0 0 0 1 0 0 0 2 0 0 0 0 1 1 0 0 0 0 0 0 1 0 1 0 0 0 1 0 0 1 0 2 0 0 0 0 0 0 0 0 0 0 1 0 0 1 0 2 0 0 0 0 0 0 0 0 0 0 0 0 0 0 0 0 0 0 0 0 1 0 0 0 0 0 0 0 0 0 0 0 0 0 0 0 0 0 0 0 0 0 0 1 0 2 0 0 0 0 0 0 0 1 0 1 1 0 1 0 1 0 0 1 0 0 0 1 0 0 0 0 0 0 0 0 0 0 1 0 0 0 0 1 0 1 1 0 0 2 0 0 0 0 1 1 0 0 0 0 1 0 0 1 0 0 0 0 0 0 0 2 0 0 0 0 0 1 0 0 0 0 0 0 0 1 0 0 1 2 1 0 0 0 0 0 0 0 0 0 0 0 0 0 0 1 0 0 0 0 0 0 0 2 1 0 0 0 0 1 0 0 2 0 0 1 0 0 2 0 0 0 0 1 0 0 0 0 1 0 0 0 1 0 0 0 0 0 1 0 0 0 0 0 0 0 0 0 0 0 0 1 1 0 0 0 0 0 0 0 0 0 0 0 0 0 0 0 0 0 0 0 0 1 0 0 0 0 0 0 0 0 1 0 0 0 0 0 1 0 0 1 0 0 0 0 1 0 0 0 1 0 1 0 0 0 0 0 0 1 1 1 0</counts>
			</dataPoints>
		</scan>
	</xrdMeasurement>
</xrdMeasurements>
